  PAW_PBE Cr_pv 02Aug2007                
   12.0000000000000     
 parameters from PSCTR are:
   VRHFIN =Cr : p6d5s1
   LEXCH  = PE
   EATOM  =  1647.9177 eV,  121.1185 Ry

   TITEL  = PAW_PBE Cr_pv 02Aug2007
   LULTRA =        F    use ultrasoft PP ?
   IUNSCR =        1    unscreen: 0-lin 1-nonlin 2-no
   RPACOR =    2.080    partial core radius
   POMASS =   51.996; ZVAL   =   12.000    mass and valenz
   RCORE  =    2.300    outmost cutoff radius
   RWIGS  =    2.500; RWIGS  =    1.323    wigner-seitz radius (au A)
   ENMAX  =  265.681; ENMIN  =  199.261 eV
   ICORE  =        3    local potential
   LCOR   =        T    correct aug charges
   LPAW   =        T    paw PP
   EAUG   =  519.424
   DEXC   =    0.000
   RMAX   =    2.356    core radius for proj-oper
   RAUG   =    1.300    factor for augmentation sphere
   RDEP   =    2.447    radius for radial grids
   RDEPT  =    1.882    core radius for aug-charge
 
   Atomic configuration
    8 entries
     n  l   j            E        occ.
     1  0  0.50     -5880.4963   2.0000
     2  0  0.50      -667.0865   2.0000
     2  1  1.50      -560.6250   6.0000
     3  0  0.50       -73.9860   2.0000
     3  1  1.50       -45.4378   6.0000
     3  2  2.50        -2.9137   5.0000
     4  0  0.50        -4.0071   1.0000
     4  3  2.50        -1.3606   0.0000
   Description
     l       E           TYP  RCUT    TYP  RCUT
     1    -45.4377911     23  2.000
     1      1.3605826     23  2.000
     2     -2.9136672     23  2.300
     2     -4.2742498     23  2.300
     0     -4.0071320     23  2.300
     0      9.4498803     23  2.300
     3      2.7211652     23  2.300
   Error from kinetic energy argument (eV)
   NDATA  =      100
   STEP   =   20.000   1.050
  200.      197.      196.      193.      192.      189.      186.      184.
  180.      177.      175.      171.      166.      162.      157.      153.
  148.      143.      138.      131.      126.      120.      113.      108.
  103.      95.0      87.6      82.8      75.8      69.0      62.5      56.3
  50.5      45.0      39.9      35.2      29.5      25.6      21.1      18.0
  14.5      11.5      8.98      6.91      5.23      3.89      2.83      1.85
  1.29     0.787     0.464     0.299     0.172     0.106     0.715E-01 0.625E-01
 0.605E-01 0.596E-01 0.563E-01 0.498E-01 0.411E-01 0.319E-01 0.233E-01 0.154E-01
 0.108E-01 0.759E-02 0.612E-02 0.561E-02 0.538E-02 0.507E-02 0.444E-02 0.360E-02
 0.272E-02 0.199E-02 0.143E-02 0.116E-02 0.102E-02 0.951E-03 0.860E-03 0.744E-03
 0.594E-03 0.455E-03 0.352E-03 0.284E-03 0.249E-03 0.225E-03 0.200E-03 0.166E-03
 0.131E-03 0.102E-03 0.831E-04 0.750E-04 0.685E-04 0.593E-04 0.461E-04 0.352E-04
 0.300E-04 0.287E-04 0.256E-04 0.199E-04
END of PSCTR-controll parameters
 local part
   81.2582175088937     
  0.87111699E+02  0.87110218E+02  0.87094957E+02  0.87069538E+02  0.87033983E+02
  0.86988321E+02  0.86932580E+02  0.86866788E+02  0.86790967E+02  0.86705131E+02
  0.86609284E+02  0.86503420E+02  0.86387523E+02  0.86261568E+02  0.86125521E+02
  0.85979342E+02  0.85822987E+02  0.85656408E+02  0.85479556E+02  0.85292375E+02
  0.85094807E+02  0.84886791E+02  0.84668256E+02  0.84439127E+02  0.84199317E+02
  0.83948731E+02  0.83687265E+02  0.83414802E+02  0.83131218E+02  0.82836380E+02
  0.82530145E+02  0.82212365E+02  0.81882884E+02  0.81541543E+02  0.81188176E+02
  0.80822613E+02  0.80444681E+02  0.80054205E+02  0.79651007E+02  0.79234909E+02
  0.78805734E+02  0.78363306E+02  0.77907454E+02  0.77438015E+02  0.76954829E+02
  0.76457751E+02  0.75946642E+02  0.75421382E+02  0.74881861E+02  0.74327988E+02
  0.73759690E+02  0.73176915E+02  0.72579631E+02  0.71967830E+02  0.71341530E+02
  0.70700777E+02  0.70045643E+02  0.69376233E+02  0.68692683E+02  0.67995161E+02
  0.67283871E+02  0.66559052E+02  0.65820976E+02  0.65069955E+02  0.64306336E+02
  0.63530502E+02  0.62742875E+02  0.61943914E+02  0.61134113E+02  0.60314005E+02
  0.59484158E+02  0.58645175E+02  0.57797694E+02  0.56942384E+02  0.56079947E+02
  0.55211115E+02  0.54336646E+02  0.53457325E+02  0.52573960E+02  0.51687381E+02
  0.50798436E+02  0.49907989E+02  0.49016918E+02  0.48126113E+02  0.47236470E+02
  0.46348891E+02  0.45464278E+02  0.44583534E+02  0.43707556E+02  0.42837233E+02
  0.41973442E+02  0.41117049E+02  0.40268899E+02  0.39429818E+02  0.38600609E+02
  0.37782049E+02  0.36974885E+02  0.36179832E+02  0.35397571E+02  0.34628749E+02
  0.33873970E+02  0.33133800E+02  0.32408759E+02  0.31699326E+02  0.31005931E+02
  0.30328958E+02  0.29668743E+02  0.29025571E+02  0.28399679E+02  0.27791253E+02
  0.27200430E+02  0.26627297E+02  0.26071889E+02  0.25534195E+02  0.25014153E+02
  0.24511656E+02  0.24026551E+02  0.23558637E+02  0.23107673E+02  0.22673378E+02
  0.22255428E+02  0.21853466E+02  0.21467099E+02  0.21095901E+02  0.20739418E+02
  0.20397168E+02  0.20068646E+02  0.19753325E+02  0.19450661E+02  0.19160091E+02
  0.18881044E+02  0.18612936E+02  0.18355179E+02  0.18107178E+02  0.17868341E+02
  0.17638075E+02  0.17415794E+02  0.17200919E+02  0.16992879E+02  0.16791117E+02
  0.16595091E+02  0.16404275E+02  0.16218162E+02  0.16036264E+02  0.15858118E+02
  0.15683284E+02  0.15511345E+02  0.15341913E+02  0.15174626E+02  0.15009151E+02
  0.14845182E+02  0.14682443E+02  0.14520688E+02  0.14359699E+02  0.14199287E+02
  0.14039293E+02  0.13879585E+02  0.13720058E+02  0.13560637E+02  0.13401270E+02
  0.13241930E+02  0.13082615E+02  0.12923345E+02  0.12764160E+02  0.12605121E+02
  0.12446305E+02  0.12287806E+02  0.12129733E+02  0.11972207E+02  0.11815361E+02
  0.11659335E+02  0.11504280E+02  0.11350349E+02  0.11197701E+02  0.11046498E+02
  0.10896901E+02  0.10749071E+02  0.10603166E+02  0.10459340E+02  0.10317741E+02
  0.10178513E+02  0.10041790E+02  0.99076956E+01  0.97763464E+01  0.96478466E+01
  0.95222894E+01  0.93997553E+01  0.92803126E+01  0.91640160E+01  0.90509072E+01
  0.89410138E+01  0.88343501E+01  0.87309166E+01  0.86307002E+01  0.85336747E+01
  0.84398010E+01  0.83490277E+01  0.82612915E+01  0.81765178E+01  0.80946216E+01
  0.80155082E+01  0.79390739E+01  0.78652069E+01  0.77937883E+01  0.77246930E+01
  0.76577905E+01  0.75929463E+01  0.75300224E+01  0.74688786E+01  0.74093737E+01
  0.73513660E+01  0.72947146E+01  0.72392802E+01  0.71849260E+01  0.71315188E+01
  0.70789292E+01  0.70270332E+01  0.69757119E+01  0.69248531E+01  0.68743510E+01
  0.68241075E+01  0.67740321E+01  0.67240425E+01  0.66740646E+01  0.66240332E+01
  0.65738920E+01  0.65235933E+01  0.64730983E+01  0.64223773E+01  0.63714089E+01
  0.63201802E+01  0.62686868E+01  0.62169319E+01  0.61649264E+01  0.61126881E+01
  0.60602418E+01  0.60076181E+01  0.59548537E+01  0.59019900E+01  0.58490731E+01
  0.57961530E+01  0.57432829E+01  0.56905187E+01  0.56379184E+01  0.55855413E+01
  0.55334475E+01  0.54816974E+01  0.54303509E+01  0.53794671E+01  0.53291036E+01
  0.52793159E+01  0.52301573E+01  0.51816781E+01  0.51339252E+01  0.50869420E+01
  0.50407679E+01  0.49954380E+01  0.49509829E+01  0.49074287E+01  0.48647965E+01
  0.48231027E+01  0.47823587E+01  0.47425710E+01  0.47037412E+01  0.46658662E+01
  0.46289380E+01  0.45929443E+01  0.45578685E+01  0.45236896E+01  0.44903831E+01
  0.44579207E+01  0.44262709E+01  0.43953992E+01  0.43652688E+01  0.43358403E+01
  0.43070727E+01  0.42789234E+01  0.42513488E+01  0.42243044E+01  0.41977456E+01
  0.41716275E+01  0.41459056E+01  0.41205362E+01  0.40954766E+01  0.40706853E+01
  0.40461225E+01  0.40217503E+01  0.39975329E+01  0.39734367E+01  0.39494309E+01
  0.39254873E+01  0.39015805E+01  0.38776880E+01  0.38537903E+01  0.38298711E+01
  0.38059171E+01  0.37819179E+01  0.37578664E+01  0.37337583E+01  0.37095923E+01
  0.36853698E+01  0.36610951E+01  0.36367748E+01  0.36124179E+01  0.35880355E+01
  0.35636409E+01  0.35392489E+01  0.35148759E+01  0.34905398E+01  0.34662592E+01
  0.34420540E+01  0.34179443E+01  0.33939510E+01  0.33700949E+01  0.33463967E+01
  0.33228771E+01  0.32995561E+01  0.32764532E+01  0.32535868E+01  0.32309744E+01
  0.32086324E+01  0.31865758E+01  0.31648180E+01  0.31433711E+01  0.31222455E+01
  0.31014498E+01  0.30809911E+01  0.30608744E+01  0.30411032E+01  0.30216792E+01
  0.30026020E+01  0.29838700E+01  0.29654795E+01  0.29474254E+01  0.29297010E+01
  0.29122982E+01  0.28952075E+01  0.28784185E+01  0.28619194E+01  0.28456975E+01
  0.28297395E+01  0.28140313E+01  0.27985583E+01  0.27833054E+01  0.27682576E+01
  0.27533993E+01  0.27387155E+01  0.27241908E+01  0.27098106E+01  0.26955605E+01
  0.26814267E+01  0.26673959E+01  0.26534559E+01  0.26395951E+01  0.26258027E+01
  0.26120692E+01  0.25983858E+01  0.25847451E+01  0.25711405E+01  0.25575665E+01
  0.25440190E+01  0.25304948E+01  0.25169917E+01  0.25035088E+01  0.24900462E+01
  0.24766047E+01  0.24631864E+01  0.24497940E+01  0.24364311E+01  0.24231019E+01
  0.24098113E+01  0.23965648E+01  0.23833682E+01  0.23702276E+01  0.23571495E+01
  0.23441406E+01  0.23312074E+01  0.23183568E+01  0.23055951E+01  0.22929288E+01
  0.22803640E+01  0.22679064E+01  0.22555614E+01  0.22433336E+01  0.22312275E+01
  0.22192467E+01  0.22073943E+01  0.21956726E+01  0.21840835E+01  0.21726279E+01
  0.21613061E+01  0.21501180E+01  0.21390623E+01  0.21281374E+01  0.21173410E+01
  0.21066701E+01  0.20961211E+01  0.20856899E+01  0.20753721E+01  0.20651625E+01
  0.20550560E+01  0.20450468E+01  0.20351292E+01  0.20252972E+01  0.20155446E+01
  0.20058654E+01  0.19962534E+01  0.19867029E+01  0.19772080E+01  0.19677631E+01
  0.19583632E+01  0.19490032E+01  0.19396789E+01  0.19303862E+01  0.19211216E+01
  0.19118823E+01  0.19026658E+01  0.18934704E+01  0.18842949E+01  0.18751389E+01
  0.18660022E+01  0.18568857E+01  0.18477905E+01  0.18387184E+01  0.18296719E+01
  0.18206539E+01  0.18116676E+01  0.18027170E+01  0.17938062E+01  0.17849398E+01
  0.17761227E+01  0.17673599E+01  0.17586566E+01  0.17500183E+01  0.17414503E+01
  0.17329578E+01  0.17245462E+01  0.17162205E+01  0.17079856E+01  0.16998461E+01
  0.16918062E+01  0.16838699E+01  0.16760404E+01  0.16683209E+01  0.16607136E+01
  0.16532205E+01  0.16458428E+01  0.16385811E+01  0.16314354E+01  0.16244050E+01
  0.16174887E+01  0.16106845E+01  0.16039897E+01  0.15974013E+01  0.15909152E+01
  0.15845272E+01  0.15782324E+01  0.15720251E+01  0.15658997E+01  0.15598496E+01
  0.15538684E+01  0.15479488E+01  0.15420838E+01  0.15362658E+01  0.15304875E+01
  0.15247411E+01  0.15190191E+01  0.15133141E+01  0.15076188E+01  0.15019260E+01
  0.14962289E+01  0.14905211E+01  0.14847964E+01  0.14790493E+01  0.14732746E+01
  0.14674676E+01  0.14616246E+01  0.14557419E+01  0.14498171E+01  0.14438480E+01
  0.14378334E+01  0.14317727E+01  0.14256659E+01  0.14195141E+01  0.14133186E+01
  0.14070818E+01  0.14008066E+01  0.13944966E+01  0.13881559E+01  0.13817894E+01
  0.13754023E+01  0.13690005E+01  0.13625901E+01  0.13561780E+01  0.13497710E+01
  0.13433763E+01  0.13370013E+01  0.13306537E+01  0.13243410E+01  0.13180708E+01
  0.13118506E+01  0.13056878E+01  0.12995897E+01  0.12935630E+01  0.12876145E+01
  0.12817503E+01  0.12759762E+01  0.12702974E+01  0.12647187E+01  0.12592443E+01
  0.12538776E+01  0.12486216E+01  0.12434785E+01  0.12384497E+01  0.12335360E+01
  0.12287376E+01  0.12240539E+01  0.12194835E+01  0.12150244E+01  0.12106740E+01
  0.12064288E+01  0.12022849E+01  0.11982378E+01  0.11942822E+01  0.11904126E+01
  0.11866229E+01  0.11829065E+01  0.11792565E+01  0.11756658E+01  0.11721270E+01
  0.11686325E+01  0.11651745E+01  0.11617454E+01  0.11583374E+01  0.11549428E+01
  0.11515540E+01  0.11481638E+01  0.11447650E+01  0.11413509E+01  0.11379150E+01
  0.11344513E+01  0.11309543E+01  0.11274188E+01  0.11238405E+01  0.11202153E+01
  0.11165400E+01  0.11128116E+01  0.11090283E+01  0.11051884E+01  0.11012913E+01
  0.10973366E+01  0.10933249E+01  0.10892573E+01  0.10851355E+01  0.10809618E+01
  0.10767391E+01  0.10724708E+01  0.10681608E+01  0.10638136E+01  0.10594339E+01
  0.10550269E+01  0.10505982E+01  0.10461534E+01  0.10416987E+01  0.10372402E+01
  0.10327842E+01  0.10283370E+01  0.10239051E+01  0.10194947E+01  0.10151121E+01
  0.10107634E+01  0.10064545E+01  0.10021910E+01  0.99797830E+00  0.99382138E+00
  0.98972489E+00  0.98569308E+00  0.98172975E+00  0.97783824E+00  0.97402143E+00
  0.97028167E+00  0.96662082E+00  0.96304020E+00  0.95954061E+00  0.95612232E+00
  0.95278509E+00  0.94952814E+00  0.94635020E+00  0.94324950E+00  0.94022382E+00
  0.93727050E+00  0.93438647E+00  0.93156827E+00  0.92881211E+00  0.92611390E+00
  0.92346925E+00  0.92087358E+00  0.91832210E+00  0.91580986E+00  0.91333182E+00
  0.91088287E+00  0.90845789E+00  0.90605177E+00  0.90365947E+00  0.90127606E+00
  0.89889674E+00  0.89651692E+00  0.89413219E+00  0.89173843E+00  0.88933176E+00
  0.88690861E+00  0.88446575E+00  0.88200025E+00  0.87950958E+00  0.87699157E+00
  0.87444441E+00  0.87186672E+00  0.86925748E+00  0.86661608E+00  0.86394228E+00
  0.86123624E+00  0.85849849E+00  0.85572991E+00  0.85293170E+00  0.85010541E+00
  0.84725286E+00  0.84437616E+00  0.84147767E+00  0.83855996E+00  0.83562581E+00
  0.83267816E+00  0.82972009E+00  0.82675479E+00  0.82378552E+00  0.82081559E+00
  0.81784834E+00  0.81488706E+00  0.81193503E+00  0.80899544E+00  0.80607137E+00
  0.80316579E+00  0.80028153E+00  0.79742125E+00  0.79458741E+00  0.79178230E+00
  0.78900797E+00  0.78626626E+00  0.78355876E+00  0.78088681E+00  0.77825151E+00
  0.77565370E+00  0.77309396E+00  0.77057262E+00  0.76808978E+00  0.76564526E+00
  0.76323870E+00  0.76086948E+00  0.75853680E+00  0.75623966E+00  0.75397687E+00
  0.75174711E+00  0.74954889E+00  0.74738058E+00  0.74524049E+00  0.74312679E+00
  0.74103762E+00  0.73897103E+00  0.73692510E+00  0.73489784E+00  0.73288732E+00
  0.73089161E+00  0.72890883E+00  0.72693717E+00  0.72497488E+00  0.72302032E+00
  0.72107191E+00  0.71912822E+00  0.71718790E+00  0.71524975E+00  0.71331270E+00
  0.71137579E+00  0.70943824E+00  0.70749938E+00  0.70555869E+00  0.70361580E+00
  0.70167046E+00  0.69972255E+00  0.69777208E+00  0.69581916E+00  0.69386403E+00
  0.69190699E+00  0.68994846E+00  0.68798893E+00  0.68602894E+00  0.68406912E+00
  0.68211010E+00  0.68015259E+00  0.67819730E+00  0.67624494E+00  0.67429623E+00
  0.67235187E+00  0.67041254E+00  0.66847889E+00  0.66655151E+00  0.66463096E+00
  0.66271773E+00  0.66081225E+00  0.65891491E+00  0.65702599E+00  0.65514574E+00
  0.65327431E+00  0.65141179E+00  0.64955819E+00  0.64771345E+00  0.64587744E+00
  0.64404996E+00  0.64223077E+00  0.64041954E+00  0.63861594E+00  0.63681957E+00
  0.63503000E+00  0.63324681E+00  0.63146952E+00  0.62969768E+00  0.62793083E+00
  0.62616853E+00  0.62441035E+00  0.62265588E+00  0.62090476E+00  0.61915668E+00
  0.61741135E+00  0.61566857E+00  0.61392818E+00  0.61219012E+00  0.61045438E+00
  0.60872103E+00  0.60699021E+00  0.60526215E+00  0.60353716E+00  0.60181561E+00
  0.60009796E+00  0.59838471E+00  0.59667646E+00  0.59497386E+00  0.59327761E+00
  0.59158846E+00  0.58990723E+00  0.58823473E+00  0.58657182E+00  0.58491939E+00
  0.58327830E+00  0.58164944E+00  0.58003365E+00  0.57843177E+00  0.57684458E+00
  0.57527283E+00  0.57371721E+00  0.57217834E+00  0.57065677E+00  0.56915297E+00
  0.56766732E+00  0.56620010E+00  0.56475148E+00  0.56332154E+00  0.56191023E+00
  0.56051737E+00  0.55914269E+00  0.55778578E+00  0.55644612E+00  0.55512307E+00
  0.55381587E+00  0.55252366E+00  0.55124549E+00  0.54998029E+00  0.54872692E+00
  0.54748414E+00  0.54625065E+00  0.54502508E+00  0.54380602E+00  0.54259200E+00
  0.54138156E+00  0.54017318E+00  0.53896537E+00  0.53775665E+00  0.53654557E+00
  0.53533071E+00  0.53411071E+00  0.53288427E+00  0.53165019E+00  0.53040733E+00
  0.52915467E+00  0.52789129E+00  0.52661639E+00  0.52532930E+00  0.52402949E+00
  0.52271657E+00  0.52139029E+00  0.52005057E+00  0.51869747E+00  0.51733120E+00
  0.51595215E+00  0.51456083E+00  0.51315791E+00  0.51174422E+00  0.51032070E+00
  0.50888843E+00  0.50744862E+00  0.50600258E+00  0.50455174E+00  0.50309762E+00
  0.50164180E+00  0.50018595E+00  0.49873177E+00  0.49728103E+00  0.49583548E+00
  0.49439692E+00  0.49296709E+00  0.49154776E+00  0.49014061E+00  0.48874731E+00
  0.48736942E+00  0.48600846E+00  0.48466581E+00  0.48334278E+00  0.48204055E+00
  0.48076016E+00  0.47950252E+00  0.47826837E+00  0.47705833E+00  0.47587282E+00
  0.47471211E+00  0.47357630E+00  0.47246531E+00  0.47137891E+00  0.47031667E+00
  0.46927804E+00  0.46826226E+00  0.46726846E+00  0.46629558E+00  0.46534244E+00
  0.46440775E+00  0.46349006E+00  0.46258784E+00  0.46169944E+00  0.46082316E+00
  0.45995720E+00  0.45909973E+00  0.45824888E+00  0.45740275E+00  0.45655945E+00
  0.45571710E+00  0.45487382E+00  0.45402780E+00  0.45317728E+00  0.45232056E+00
  0.45145603E+00  0.45058217E+00  0.44969758E+00  0.44880098E+00  0.44789122E+00
  0.44696729E+00  0.44602832E+00  0.44507363E+00  0.44410266E+00  0.44311505E+00
  0.44211058E+00  0.44108921E+00  0.44005106E+00  0.43899643E+00  0.43792577E+00
  0.43683969E+00  0.43573894E+00  0.43462445E+00  0.43349725E+00  0.43235853E+00
  0.43120956E+00  0.43005176E+00  0.42888661E+00  0.42771568E+00  0.42654060E+00
  0.42536305E+00  0.42418475E+00  0.42300744E+00  0.42183287E+00  0.42066278E+00
  0.41949889E+00  0.41834287E+00  0.41719637E+00  0.41606094E+00  0.41493808E+00
  0.41382919E+00  0.41273558E+00  0.41165842E+00  0.41059879E+00  0.40955763E+00
  0.40853575E+00  0.40753380E+00  0.40655231E+00  0.40559166E+00  0.40465207E+00
  0.40373361E+00  0.40283622E+00  0.40195966E+00  0.40110358E+00  0.40026746E+00
  0.39945067E+00  0.39865243E+00  0.39787185E+00  0.39710792E+00  0.39635955E+00
  0.39562553E+00  0.39490458E+00  0.39419536E+00  0.39349646E+00  0.39280644E+00
  0.39212381E+00  0.39144708E+00  0.39077473E+00  0.39010527E+00  0.38943719E+00
  0.38876905E+00  0.38809943E+00  0.38742697E+00  0.38675037E+00  0.38606841E+00
  0.38537996E+00  0.38468397E+00  0.38397951E+00  0.38326572E+00  0.38254189E+00
  0.38180740E+00  0.38106176E+00  0.38030461E+00  0.37953569E+00  0.37875488E+00
  0.37796218E+00  0.37715771E+00  0.37634171E+00  0.37551452E+00  0.37467662E+00
  0.37382857E+00  0.37297102E+00  0.37210473E+00  0.37123051E+00  0.37034928E+00
  0.36946200E+00  0.36856967E+00  0.36767335E+00  0.36677415E+00  0.36587318E+00
  0.36497156E+00  0.36407045E+00  0.36317095E+00  0.36227420E+00  0.36138128E+00
  0.36049324E+00  0.35961110E+00  0.35873580E+00  0.35786825E+00  0.35700929E+00
  0.35615969E+00  0.35532012E+00  0.35449120E+00  0.35367345E+00  0.35286732E+00
  0.35207316E+00  0.35129122E+00  0.35052167E+00  0.34976460E+00  0.34901998E+00
  0.34828772E+00  0.34756764E+00  0.34685947E+00  0.34616287E+00  0.34547742E+00
  0.34480265E+00  0.34413802E+00  0.34348294E+00  0.34283676E+00  0.34219880E+00
  0.34156836E+00  0.34094468E+00  0.34032701E+00  0.33971456E+00  0.33910657E+00
  0.33850224E+00  0.33790083E+00  0.33730156E+00  0.33670374E+00  0.33610664E+00
  0.33550962E+00  0.33491205E+00  0.33431336E+00  0.33371300E+00  0.33311051E+00
  0.33250545E+00  0.33189746E+00  0.33128622E+00  0.33067147E+00  0.33005303E+00
 gradient corrections used for XC
           5
 core charge-density (partial)
  0.49462933E+00  0.49440883E+00  0.49374790E+00  0.49264819E+00  0.49111249E+00
  0.48914466E+00  0.48674966E+00  0.48393349E+00  0.48070319E+00  0.47706681E+00
  0.47303335E+00  0.46861276E+00  0.46381590E+00  0.45865445E+00  0.45314091E+00
  0.44728854E+00  0.44111128E+00  0.43462375E+00  0.42784115E+00  0.42077919E+00
  0.41345410E+00  0.40588248E+00  0.39808132E+00  0.39006789E+00  0.38185968E+00
  0.37347437E+00  0.36492973E+00  0.35624360E+00  0.34743379E+00  0.33851806E+00
  0.32951405E+00  0.32043920E+00  0.31131075E+00  0.30214563E+00  0.29296048E+00
  0.28377153E+00  0.27459463E+00  0.26544516E+00  0.25633800E+00  0.24728753E+00
  0.23830756E+00  0.22941131E+00  0.22061142E+00  0.21191987E+00  0.20334801E+00
  0.19490653E+00  0.18660545E+00  0.17845409E+00  0.17046110E+00  0.16263442E+00
  0.15498130E+00  0.14750832E+00  0.14022134E+00  0.13312557E+00  0.12622553E+00
  0.11952509E+00  0.11302748E+00  0.10673528E+00  0.10065047E+00  0.94774447E-01
  0.89108015E-01  0.83651434E-01  0.78404430E-01  0.73366227E-01  0.68535562E-01
  0.63910717E-01  0.59489544E-01  0.55269487E-01  0.51247612E-01  0.47420633E-01
  0.43784939E-01  0.40336619E-01  0.37071489E-01  0.33985121E-01  0.31072863E-01
  0.28329873E-01  0.25751133E-01  0.23331484E-01  0.21065643E-01  0.18948226E-01
  0.16973775E-01  0.15136774E-01  0.13431671E-01  0.11852898E-01  0.10394890E-01
  0.90521016E-02  0.78190227E-02  0.66901954E-02  0.56602278E-02  0.47238078E-02
  0.38757149E-02  0.31108321E-02  0.24241561E-02  0.18108068E-02  0.12660353E-02
  0.78523191E-03  0.36393210E-03 -0.21775424E-05 -0.31725476E-03 -0.58529778E-03
 -0.81014225E-03 -0.99545903E-03 -0.11447527E-02 -0.12613606E-02 -0.13484532E-02
 -0.14090341E-02 -0.14459414E-02 -0.14618494E-02 -0.14592707E-02 -0.14405592E-02
 -0.14079126E-02 -0.13633767E-02 -0.13088485E-02 -0.12460810E-02 -0.11766875E-02
 -0.11021462E-02 -0.10238054E-02 -0.94288836E-03 -0.86049886E-03 -0.77762646E-03
 -0.69515202E-03 -0.61385325E-03 -0.53441028E-03 -0.45741128E-03 -0.38335797E-03
 -0.31267122E-03 -0.24569644E-03 -0.18270902E-03 -0.12391958E-03 -0.69479151E-04
 -0.19484178E-04  0.26018556E-04  0.67027218E-04  0.10358036E-03  0.13575254E-03
  0.16365009E-03  0.18740716E-03  0.20718186E-03  0.22315264E-03  0.23551493E-03
  0.24447787E-03  0.25026136E-03  0.25309323E-03  0.25320666E-03  0.25083778E-03
  0.24622350E-03  0.23959946E-03  0.23119828E-03  0.22124788E-03  0.20997007E-03
  0.19757927E-03  0.18428140E-03  0.17027291E-03  0.15574003E-03  0.14085809E-03
  0.12579101E-03  0.11069093E-03  0.95697913E-04  0.80939835E-04  0.66532313E-04
  0.52578759E-04  0.39170523E-04  0.26387107E-04  0.14296457E-04  0.29553174E-05
 -0.75903559E-05 -0.17304934E-04 -0.26162609E-04 -0.34146856E-04 -0.41249861E-04
 -0.47471930E-04 -0.52820876E-04 -0.57311399E-04 -0.60964460E-04 -0.63806649E-04
 -0.65869557E-04 -0.67189163E-04 -0.67805222E-04 -0.67760674E-04 -0.67101071E-04
 -0.65874020E-04 -0.64128656E-04 -0.61915135E-04 -0.59284160E-04 -0.56286528E-04
 -0.52972716E-04 -0.49392493E-04 -0.45594565E-04 -0.41626251E-04 -0.37533193E-04
 -0.33359101E-04 -0.29145524E-04 -0.24931654E-04 -0.20754169E-04 -0.16647094E-04
 -0.12641701E-04 -0.87664296E-05 -0.50468402E-05 -0.15055893E-05  0.18375696E-05
  0.49657644E-05  0.78649600E-05  0.10523896E-04  0.12934006E-04  0.15089322E-04
  0.16986363E-04  0.18624013E-04  0.20003387E-04  0.21127686E-04  0.22002050E-04
  0.22633399E-04  0.23030272E-04  0.23202665E-04  0.23161861E-04  0.22920269E-04
  0.22491257E-04  0.21888986E-04  0.21128256E-04  0.20224347E-04  0.19192868E-04
  0.18049617E-04  0.16810438E-04  0.15491096E-04  0.14107151E-04  0.12673844E-04
  0.11205998E-04  0.97179121E-05  0.82232845E-05  0.67351295E-05  0.52657117E-05
  0.38264878E-05  0.24280581E-05  0.10801265E-05 -0.20852943E-06 -0.14300798E-05
 -0.25776557E-05 -0.36453540E-05 -0.46282338E-05 -0.55223069E-05 -0.63245200E-05
 -0.70327313E-05 -0.76456808E-05 -0.81629558E-05 -0.85849507E-05 -0.89128235E-05
 -0.91484477E-05 -0.92943616E-05 -0.93537149E-05 -0.93302127E-05 -0.92280586E-05
 -0.90518967E-05 -0.88067520E-05 -0.84979725E-05 -0.81311699E-05 -0.77121622E-05
 -0.72469172E-05 -0.67414972E-05 -0.62020065E-05 -0.56345398E-05 -0.50451345E-05
 -0.44397247E-05 -0.38240987E-05 -0.32038595E-05 -0.25843886E-05 -0.19708132E-05
 -0.13679771E-05 -0.78041474E-06 -0.21232939E-06  0.33242542E-06  0.85036075E-06
  0.13383636E-05  0.17937049E-05  0.22140438E-05  0.25974293E-05  0.29422980E-05
  0.32474698E-05  0.35121400E-05  0.37358693E-05  0.39185709E-05  0.40604963E-05
  0.41622181E-05  0.42246114E-05  0.42488341E-05  0.42363048E-05  0.41886809E-05
  0.41078346E-05  0.39958291E-05  0.38548937E-05  0.36873993E-05  0.34958331E-05
  0.32827740E-05  0.30508684E-05  0.28028057E-05  0.25412955E-05  0.22690450E-05
  0.19887374E-05  0.17030115E-05  0.14144424E-05  0.11255239E-05  0.83865134E-06
  0.55610689E-06  0.28004582E-06  0.12484393E-07 -0.24471061E-06 -0.48983081E-06
 -0.72133352E-06 -0.93784747E-06 -0.11381769E-05 -0.13213043E-05 -0.14863912E-05
 -0.16327783E-05 -0.17599831E-05 -0.18676975E-05 -0.19557830E-05 -0.20242654E-05
 -0.20733282E-05 -0.21033051E-05 -0.21146718E-05 -0.21080362E-05 -0.20841290E-05
 -0.20437932E-05 -0.19879726E-05 -0.19177014E-05 -0.18340914E-05 -0.17383212E-05
 -0.16316239E-05 -0.15152751E-05 -0.13905815E-05 -0.12588689E-05 -0.11214715E-05
 -0.97972019E-06 -0.83493288E-06 -0.68840390E-06 -0.54139475E-06 -0.39512523E-06
 -0.25076520E-06 -0.10942709E-06  0.27840932E-07  0.16006098E-06  0.28633071E-06
  0.40582788E-06  0.51781397E-06  0.62163715E-06  0.71673439E-06  0.80263283E-06
  0.87895033E-06  0.94539541E-06  0.10017663E-05  0.10479496E-05  0.10839178E-05
  0.11097270E-05  0.11255130E-05  0.11314879E-05  0.11279357E-05  0.11152075E-05
  0.10937164E-05  0.10639321E-05  0.10263755E-05  0.98161238E-06  0.93024766E-06
  0.87291924E-06  0.81029173E-06  0.74305032E-06  0.67189465E-06  0.59753269E-06
  0.52067488E-06  0.44202840E-06  0.36229160E-06  0.28214873E-06  0.20226503E-06
  0.12328194E-06  0.45812869E-07 -0.29560836E-07 -0.10229346E-06 -0.17187812E-06
 -0.23784952E-06 -0.29978637E-06 -0.35731328E-06 -0.41010230E-06 -0.45787403E-06
 -0.50039825E-06 -0.53749426E-06 -0.56903071E-06 -0.59492507E-06 -0.61514281E-06
 -0.62969610E-06 -0.63864229E-06 -0.64208206E-06 -0.64015719E-06 -0.63304825E-06
 -0.62097190E-06 -0.60417807E-06 -0.58294692E-06 -0.55758574E-06 -0.52842558E-06
 -0.49581800E-06 -0.46013153E-06 -0.42174832E-06 -0.38106061E-06 -0.33846735E-06
 -0.29437080E-06 -0.24917324E-06 -0.20327374E-06 -0.15706513E-06 -0.11093100E-06
 -0.65242991E-07 -0.20358118E-07  0.23383580E-07  0.65661270E-07  0.10617531E-06
  0.14464899E-06  0.18083010E-06  0.21449219E-06  0.24543560E-06  0.27348833E-06
  0.29850655E-06  0.32037494E-06  0.33900679E-06  0.35434386E-06  0.36635605E-06
  0.37504077E-06  0.38042223E-06  0.38255045E-06  0.38150015E-06  0.37736942E-06
  0.37027830E-06  0.36036721E-06  0.34779522E-06  0.33273830E-06  0.31538743E-06
  0.29594666E-06  0.27463109E-06  0.25166490E-06  0.22727930E-06  0.20171047E-06
  0.17519755E-06  0.14798069E-06  0.12029907E-06  0.92389028E-07  0.64482293E-07
  0.36804227E-07  0.95722262E-08 -0.17005797E-07 -0.42732808E-07 -0.67423925E-07
 -0.90907559E-07 -0.11302642E-06 -0.13363838E-06 -0.15261721E-06 -0.16985314E-06
 -0.18525329E-06 -0.19874198E-06 -0.21026086E-06 -0.21976890E-06 -0.22724229E-06
 -0.23267414E-06 -0.23607411E-06 -0.23746787E-06 -0.23689652E-06 -0.23441581E-06
 -0.23009536E-06 -0.22401768E-06 -0.21627726E-06 -0.20697943E-06 -0.19623928E-06
 -0.18418049E-06 -0.17093412E-06 -0.15663738E-06 -0.14143235E-06 -0.12546479E-06
 -0.10888282E-06 -0.91835711E-07 -0.74472673E-07 -0.56941656E-07 -0.39388213E-07
 -0.21954401E-07 -0.47777369E-08  0.12009779E-07  0.28282577E-07  0.43922352E-07
  0.58818824E-07  0.72870417E-07  0.85984847E-07  0.98079625E-07  0.10908247E-06
  0.11893163E-06  0.12757612E-06  0.13497585E-06  0.14110167E-06  0.14593536E-06
  0.14946949E-06  0.15170720E-06  0.15266195E-06  0.15235712E-06  0.15082562E-06
  0.14810938E-06  0.14425880E-06  0.13933213E-06  0.13339485E-06  0.12651895E-06
  0.11878218E-06  0.11026736E-06  0.10106153E-06  0.91255200E-07  0.80941521E-07
  0.70215500E-07  0.59173191E-07  0.47910908E-07  0.36524452E-07  0.25108362E-07
  0.13755190E-07  0.25548164E-08 -0.84062070E-08 -0.19045265E-07 -0.29284245E-07
 -0.39050054E-07 -0.48275080E-07 -0.56897608E-07 -0.64862168E-07 -0.72119835E-07
 -0.78628469E-07 -0.84352888E-07 -0.89264992E-07 -0.93343823E-07 -0.96575567E-07
 -0.98953502E-07 -0.10047789E-06 -0.10115580E-06 -0.10100094E-06 -0.10003334E-06
 -0.98279095E-07 -0.95769990E-07 -0.92543138E-07 -0.88640559E-07 -0.84108731E-07
 -0.78998125E-07 -0.73362712E-07 -0.67259457E-07 -0.60747794E-07 -0.53889106E-07
 -0.46746187E-07 -0.39382714E-07 -0.31862720E-07 -0.24250076E-07 -0.16607988E-07
 -0.89985102E-08 -0.14820711E-08  0.58829659E-08  0.13040724E-07  0.19938203E-07
  0.26525637E-07  0.32756822E-07  0.38589404E-07  0.43985134E-07  0.48910080E-07
  0.53334808E-07  0.57234517E-07  0.60589135E-07  0.63383379E-07  0.65606773E-07
  0.67253628E-07  0.68322986E-07  0.68818525E-07  0.68748432E-07  0.68125240E-07
  0.66965639E-07  0.65290252E-07  0.63123392E-07  0.60492784E-07  0.57429279E-07
  0.53966538E-07  0.50140709E-07  0.45990083E-07  0.41554747E-07  0.36876230E-07
  0.31997138E-07  0.26960792E-07  0.21810876E-07  0.16591071E-07  0.11344718E-07
  0.61144739E-08  0.94198694E-09 -0.41324118E-08 -0.90700036E-08 -0.13833956E-07
 -0.18389580E-07 -0.22704557E-07 -0.26749152E-07 -0.30496395E-07 -0.33922243E-07
 -0.37005704E-07 -0.39728952E-07 -0.42077397E-07 -0.44039737E-07 -0.45607986E-07
 -0.46777465E-07 -0.47546776E-07 -0.47917747E-07 -0.47895351E-07 -0.47487603E-07
 -0.46705441E-07 -0.45562574E-07 -0.44075319E-07 -0.42262423E-07 -0.40144863E-07
 -0.37745633E-07 -0.35089524E-07 -0.32202893E-07 -0.29113416E-07 -0.25849848E-07
 -0.22441769E-07 -0.18919337E-07 -0.15313030E-07 -0.11653405E-07 -0.79708457E-08
 -0.42953303E-08 -0.65619758E-09  0.29180731E-08  0.64000721E-08  0.97636565E-08
  0.12984134E-07  0.16038431E-07  0.18905244E-07  0.21565179E-07  0.24000864E-07
  0.26197052E-07  0.28140698E-07  0.29821027E-07  0.31229569E-07  0.32360187E-07
  0.33209081E-07  0.33774773E-07  0.34058074E-07  0.34062036E-07  0.33791885E-07
  0.33254936E-07  0.32460498E-07  0.31419763E-07  0.30145679E-07  0.28652814E-07
  0.26957214E-07  0.25076243E-07  0.23028421E-07  0.20833258E-07  0.18511076E-07
  0.16082837E-07  0.13569960E-07  0.10994145E-07  0.83771935E-08  0.57408341E-08
  0.31065503E-08  0.49541434E-09 -0.20720728E-08 -0.45761342E-08 -0.69978612E-08
 -0.93193479E-08 -0.11523815E-07 -0.13595724E-07 -0.15520875E-07 -0.17286501E-07
 -0.18881338E-07 -0.20295690E-07 -0.21521478E-07 -0.22552273E-07 -0.23383319E-07
 -0.24011543E-07 -0.24435543E-07 -0.24655576E-07 -0.24673521E-07 -0.24492838E-07
 -0.24118510E-07 -0.23556980E-07 -0.22816067E-07 -0.21904888E-07 -0.20833754E-07
 -0.19614073E-07 -0.18258236E-07 -0.16779501E-07 -0.15191877E-07 -0.13509993E-07
 -0.11748973E-07 -0.99243102E-08 -0.80517309E-08 -0.61470708E-08 -0.42261443E-08
 -0.23046197E-08 -0.39789715E-09  0.14790096E-08  0.33115856E-08  0.50859216E-08
  0.67888145E-08  0.84078599E-08  0.99315370E-08  0.11349285E-07  0.12651572E-07
  0.13829949E-07  0.14877104E-07  0.15786897E-07  0.16554390E-07  0.17175865E-07
  0.17648833E-07  0.17972034E-07  0.18145425E-07  0.18170159E-07  0.18048555E-07
  0.17784064E-07  0.17381217E-07  0.16845573E-07  0.16183659E-07  0.15402896E-07
  0.14511534E-07  0.13518563E-07  0.12433636E-07  0.11266977E-07  0.10029290E-07
  0.87316705E-08  0.73855040E-08  0.60023752E-08  0.45939709E-08  0.31719851E-08
  0.17480265E-08  0.33352679E-09 -0.10603469E-08 -0.24227766E-08 -0.37433741E-08
 -0.50122561E-08 -0.62201150E-08 -0.73582832E-08 -0.84187916E-08 -0.93944218E-08
 -0.10278751E-07 -0.11066189E-07 -0.11752014E-07 -0.12332386E-07 -0.12804376E-07
 -0.13165963E-07 -0.13416042E-07 -0.13554416E-07 -0.13581781E-07 -0.13499710E-07
 -0.13310624E-07 -0.13017757E-07 -0.12625122E-07 -0.12137461E-07 -0.11560201E-07
 -0.10899396E-07 -0.10161669E-07 -0.93541515E-08 -0.84844192E-08 -0.75604225E-08
 -0.65904186E-08 -0.55829003E-08 -0.45465253E-08 -0.34900438E-08 -0.24222281E-08
 -0.13518023E-08 -0.28737305E-09  0.76263627E-09  0.17900503E-08  0.27870028E-08
  0.37459941E-08  0.46599453E-08  0.55222479E-08  0.63268092E-08  0.70680926E-08
  0.77411528E-08  0.83416663E-08  0.88659558E-08  0.93110097E-08  0.96744954E-08
  0.99547676E-08  0.10150871E-07  0.10262535E-07  0.10290170E-07  0.10234848E-07
  0.10098289E-07  0.98828322E-08  0.95914129E-08  0.92275262E-08  0.87951924E-08
  0.82989165E-08  0.77436447E-08  0.71347188E-08  0.64778270E-08  0.57789540E-08
  0.50443283E-08  0.42803690E-08  0.34936320E-08  0.26907556E-08  0.18784065E-08
  0.10632261E-08  0.25177829E-09 -0.54950203E-09 -0.13343578E-08 -0.20967573E-08
 -0.28309386E-08 -0.35314512E-08 -0.41931951E-08 -0.48114562E-08 -0.53819376E-08
 -0.59007878E-08 -0.63646251E-08 -0.67705567E-08 -0.71161954E-08 -0.73996702E-08
 -0.76196342E-08 -0.77752671E-08 -0.78662744E-08 -0.78928814E-08 -0.78558241E-08
 -0.77563357E-08 -0.75961295E-08 -0.73773781E-08 -0.71026894E-08 -0.67750794E-08
 -0.63979425E-08 -0.59750182E-08 -0.55103571E-08 -0.50082836E-08 -0.44733577E-08
 -0.39103350E-08 -0.33241265E-08 -0.27197565E-08 -0.21023215E-08 -0.14769486E-08
 -0.84875386E-09 -0.22280189E-09  0.39593362E-09  0.10026083E-08  0.15925437E-08
  0.21612625E-08  0.27045207E-08  0.32183384E-08  0.36990279E-08  0.41432185E-08
  0.45478788E-08  0.49103364E-08  0.52282936E-08  0.54998406E-08  0.57234651E-08
  0.58980587E-08  0.60229200E-08  0.60977543E-08  0.61226705E-08  0.60981741E-08
  0.60251578E-08  0.59048889E-08  0.57389940E-08  0.55294406E-08  0.52785173E-08
  0.49888104E-08  0.46631795E-08  0.43047308E-08  0.39167890E-08  0.35028676E-08
  0.30666383E-08  0.26118996E-08  0.21425451E-08  0.16625305E-08  0.11758418E-08
  0.68646294E-09  0.19834399E-09 -0.28462960E-09 -0.75866722E-09 -0.12201019E-08
 -0.16654179E-08 -0.20912763E-08 -0.24945398E-08 -0.28722943E-08 -0.32218691E-08
 -0.35408553E-08 -0.38271210E-08 -0.40788244E-08 -0.42944248E-08 -0.44726907E-08
 -0.46127052E-08 -0.47138690E-08 -0.47759012E-08 -0.47988368E-08 -0.47830223E-08
 -0.47291089E-08 -0.46380427E-08 -0.45110536E-08 -0.43496416E-08 -0.41555610E-08
 -0.39308032E-08 -0.36775775E-08 -0.33982907E-08 -0.30955252E-08 -0.27720161E-08
 -0.24306273E-08 -0.20743270E-08 -0.17061629E-08 -0.13292364E-08 -0.94667747E-09
 -0.56161943E-09 -0.17717371E-09  0.20359449E-09  0.57769004E-09  0.94221081E-09
  0.12943695E-08  0.16315144E-08  0.19511487E-08  0.22509482E-08  0.25287777E-08
  0.27827055E-08  0.30110159E-08  0.32122203E-08  0.33850659E-08  0.35285426E-08
  0.36418880E-08  0.37245899E-08  0.37763876E-08  0.37972701E-08  0.37874734E-08
  0.37474752E-08  0.36779878E-08  0.35799499E-08  0.34545154E-08  0.33030421E-08
  0.31270779E-08  0.29283461E-08  0.27087291E-08  0.24702521E-08  0.22150643E-08
  0.19454206E-08  0.16636623E-08  0.13721971E-08  0.10734794E-08  0.76998965E-09
  0.46421490E-09  0.15862840E-09 -0.14432973E-09 -0.44227152E-09 -0.73287952E-09
 -0.10139244E-08 -0.12832814E-08 -0.15389462E-08 -0.17790492E-08 -0.20018687E-08
 -0.22058427E-08 -0.23895794E-08 -0.25518661E-08 -0.26916766E-08 -0.28081771E-08
 -0.29007300E-08 -0.29688972E-08 -0.30124405E-08 -0.30313211E-08 -0.30256977E-08
 -0.29959223E-08 -0.29425353E-08 -0.28662588E-08 -0.27679884E-08 -0.26487840E-08
 -0.25098594E-08 -0.23525706E-08 -0.21784030E-08 -0.19889585E-08 -0.17859408E-08
 -0.15711409E-08 -0.13464214E-08 -0.11137010E-08 -0.87493871E-09 -0.63211722E-09
 -0.38722726E-09 -0.14225150E-09  0.10085118E-09  0.34016097E-09  0.57381194E-09
  0.80000624E-09  0.10170276E-08  0.12232540E-08  0.14171694E-08  0.15973746E-08
  0.17625968E-08  0.19116984E-08  0.20436843E-08  0.21577081E-08  0.22530769E-08
  0.23292553E-08  0.23858674E-08  0.24226979E-08  0.24396922E-08  0.24369543E-08
  0.24147447E-08  0.23734760E-08  0.23137078E-08  0.22361408E-08  0.21416089E-08
  0.20310717E-08  0.19056048E-08  0.17663900E-08  0.16147046E-08  0.14519101E-08
  0.12794403E-08  0.10987892E-08  0.91149810E-09  0.71914281E-09  0.52332084E-09
 kinetic energy density (partial)
  0.44419393E+02  0.44399577E+02  0.44340178E+02  0.44241348E+02  0.44103334E+02
  0.43926486E+02  0.43711248E+02  0.43458160E+02  0.43167855E+02  0.42841056E+02
  0.42478574E+02  0.42081302E+02  0.41650215E+02  0.41186366E+02  0.40690877E+02
  0.40164940E+02  0.39609811E+02  0.39026801E+02  0.38417277E+02  0.37782654E+02
  0.37124388E+02  0.36443975E+02  0.35742940E+02  0.35022837E+02  0.34285238E+02
  0.33531733E+02  0.32763921E+02  0.31983404E+02  0.31191785E+02  0.30390660E+02
  0.29581615E+02  0.28766220E+02  0.27946023E+02  0.27122547E+02  0.26297289E+02
  0.25471708E+02  0.24647228E+02  0.23825233E+02  0.23007060E+02  0.22194003E+02
  0.21387301E+02  0.20588146E+02  0.19797671E+02  0.19016954E+02  0.18247016E+02
  0.17488817E+02  0.16743256E+02  0.16011172E+02  0.15293341E+02  0.14590477E+02
  0.13903231E+02  0.13232192E+02  0.12577887E+02  0.11940784E+02  0.11321287E+02
  0.10719743E+02  0.10136441E+02  0.95716128E+01  0.90254343E+01  0.84980289E+01
  0.79894680E+01  0.74997734E+01  0.70289191E+01  0.65768334E+01  0.61434016E+01
  0.57284676E+01  0.53318365E+01  0.49532772E+01  0.45925243E+01  0.42492810E+01
  0.39232211E+01  0.36139916E+01  0.33212152E+01  0.30444923E+01  0.27834037E+01
  0.25375128E+01  0.23063675E+01  0.20895029E+01  0.18864434E+01  0.16967040E+01
  0.15197934E+01  0.13552151E+01  0.12024695E+01  0.10610556E+01  0.93047288E+00
  0.81022252E+00  0.69980911E+00  0.59874198E+00  0.50653651E+00  0.42271531E+00
  0.34680935E+00  0.27835897E+00  0.21691484E+00  0.16203874E+00  0.11330437E+00
  0.70297964E-01  0.32618899E-01 -0.11981466E-03 -0.28291125E-01 -0.52253591E-01
 -0.72351118E-01 -0.88912765E-01 -0.10225261E+00 -0.11266971E+00 -0.12044804E+00
 -0.12585661E+00 -0.12914956E+00 -0.13056628E+00 -0.13033165E+00 -0.12865625E+00
 -0.12573671E+00 -0.12175596E+00 -0.11688362E+00 -0.11127638E+00 -0.10507840E+00
 -0.98421724E-01 -0.91426777E-01 -0.84202776E-01 -0.76848238E-01 -0.69451457E-01
 -0.62091000E-01 -0.54836209E-01 -0.47747703E-01 -0.40877878E-01 -0.34271410E-01
 -0.27965750E-01 -0.21991617E-01 -0.16373475E-01 -0.11130015E-01 -0.62746105E-02
 -0.18157728E-02  0.22424136E-02  0.58998666E-02  0.91600990E-02  0.12029826E-01
  0.14518590E-01  0.16638403E-01  0.18403405E-01  0.19829542E-01  0.20934262E-01
  0.21736230E-01  0.22255059E-01  0.22511063E-01  0.22525022E-01  0.22317977E-01
  0.21911025E-01  0.21325151E-01  0.20581061E-01  0.19699040E-01  0.18698823E-01
  0.17599484E-01  0.16419337E-01  0.15175851E-01  0.13885583E-01  0.12564117E-01
  0.11226023E-01  0.98848190E-02  0.85529512E-02  0.72417798E-02  0.59615755E-02
  0.47215244E-02  0.35297403E-02  0.23932850E-02  0.13181940E-02  0.30950843E-03
 -0.62868811E-03 -0.14932282E-02 -0.22818159E-02 -0.29929782E-02 -0.36260146E-02
 -0.41809445E-02 -0.46584526E-02 -0.50598342E-02 -0.53869388E-02 -0.56421152E-02
 -0.58281550E-02 -0.59482386E-02 -0.60058807E-02 -0.60048785E-02 -0.59492600E-02
 -0.58432361E-02 -0.56911525E-02 -0.54974461E-02 -0.52666021E-02 -0.50031146E-02
 -0.47114498E-02 -0.43960115E-02 -0.40611101E-02 -0.37109336E-02 -0.33495224E-02
 -0.29807464E-02 -0.26082849E-02 -0.22356094E-02 -0.18659697E-02 -0.15023813E-02
 -0.11476171E-02 -0.80419994E-03 -0.47439866E-03 -0.16022587E-03  0.13656206E-03
  0.41446300E-03  0.67222528E-03  0.90884218E-03  0.11235448E-02  0.13157938E-02
  0.14852694E-02  0.16318607E-02  0.17556541E-02  0.18569205E-02  0.19361021E-02
  0.19937986E-02  0.20307531E-02  0.20478378E-02  0.20460389E-02  0.20264428E-02
  0.19902208E-02  0.19386153E-02  0.18729254E-02  0.17944935E-02  0.17046918E-02
  0.16049099E-02  0.14965423E-02  0.13809772E-02  0.12595858E-02  0.11337119E-02
  0.10046630E-02  0.87370150E-03  0.74203737E-03  0.61082110E-03  0.48113777E-03
  0.35400190E-03  0.23035310E-03  0.11105257E-03 -0.31196239E-05 -0.11146650E-03
 -0.21337535E-03 -0.30831821E-03 -0.39585166E-03 -0.47561597E-03 -0.54733364E-03
 -0.61080737E-03 -0.66591753E-03 -0.71261913E-03 -0.75093840E-03 -0.78096894E-03
 -0.80286762E-03 -0.81685007E-03 -0.82318612E-03 -0.82219483E-03 -0.81423960E-03
 -0.79972302E-03 -0.77908171E-03 -0.75278125E-03 -0.72131094E-03 -0.68517882E-03
 -0.64490670E-03 -0.60102528E-03 -0.55406955E-03 -0.50457426E-03 -0.45306970E-03
 -0.40007768E-03 -0.34610773E-03 -0.29165366E-03 -0.23719031E-03 -0.18317069E-03
 -0.13002335E-03 -0.78150082E-04 -0.27923991E-04  0.20312199E-04  0.66247480E-04
  0.10960359E-03  0.15013577E-03  0.18763317E-03  0.22191901E-03  0.25285050E-03
  0.28031842E-03  0.30424650E-03  0.32459061E-03  0.34133762E-03  0.35450423E-03
  0.36413545E-03  0.37030307E-03  0.37310387E-03  0.37265782E-03  0.36910608E-03
  0.36260899E-03  0.35334396E-03  0.34150334E-03  0.32729224E-03  0.31092637E-03
  0.29262987E-03  0.27263316E-03  0.25117088E-03  0.22847978E-03  0.20479682E-03
  0.18035723E-03  0.15539272E-03  0.13012979E-03  0.10478814E-03  0.79579178E-04
  0.54704708E-04  0.30355691E-04  0.67111741E-05 -0.16062656E-04 -0.37813278E-04
 -0.58402502E-04 -0.77706998E-04 -0.95618684E-04 -0.11204499E-03 -0.12690895E-03
 -0.14014927E-03 -0.15172011E-03 -0.16159092E-03 -0.16974603E-03 -0.17618426E-03
 -0.18091830E-03 -0.18397413E-03 -0.18539026E-03 -0.18521698E-03 -0.18351548E-03
 -0.18035699E-03 -0.17582176E-03 -0.16999816E-03 -0.16298164E-03 -0.15487369E-03
 -0.14578083E-03 -0.13581354E-03 -0.12508531E-03 -0.11371154E-03 -0.10180859E-03
 -0.89492854E-04 -0.76879763E-04 -0.64082960E-04 -0.51213438E-04 -0.38378761E-04
 -0.25682332E-04 -0.13222723E-04 -0.10930644E-05  0.10619496E-04  0.21834271E-04
  0.32477450E-04  0.42482431E-04  0.51790100E-04  0.60349035E-04  0.68115640E-04
  0.75054216E-04  0.81136972E-04  0.86343962E-04  0.90662977E-04  0.94089365E-04
  0.96625815E-04  0.98282074E-04  0.99074629E-04  0.99026346E-04  0.98166070E-04
  0.96528188E-04  0.94152170E-04  0.91082084E-04  0.87366087E-04  0.83055907E-04
  0.78206312E-04  0.72874573E-04  0.67119925E-04  0.61003030E-04  0.54585452E-04
  0.47929133E-04  0.41095893E-04  0.34146942E-04  0.27142414E-04  0.20140925E-04
  0.13199157E-04  0.63714719E-05 -0.29044371E-06 -0.67379035E-05 -0.12925510E-04
 -0.18811408E-04 -0.24357504E-04 -0.29529647E-04 -0.34297773E-04 -0.38636014E-04
 -0.42522770E-04 -0.45940741E-04 -0.48876935E-04 -0.51322628E-04 -0.53273303E-04
 -0.54728554E-04 -0.55691957E-04 -0.56170920E-04 -0.56176504E-04 -0.55723221E-04
 -0.54828813E-04 -0.53514011E-04 -0.51802279E-04 -0.49719540E-04 -0.47293902E-04
 -0.44555360E-04 -0.41535507E-04 -0.38267231E-04 -0.34784416E-04 -0.31121643E-04
 -0.27313895E-04 -0.23396265E-04 -0.19403678E-04 -0.15370615E-04 -0.11330858E-04
 -0.73172355E-05 -0.33613977E-05  0.50640444E-06  0.42575156E-05  0.78650571E-05
  0.11304087E-04  0.14551744E-04  0.17587361E-04  0.20392574E-04  0.22951394E-04
  0.25250266E-04  0.27278109E-04  0.29026328E-04  0.30488814E-04  0.31661918E-04
  0.32544413E-04  0.33137428E-04  0.33444379E-04  0.33470873E-04  0.33224600E-04
  0.32715216E-04  0.31954208E-04  0.30954753E-04  0.29731566E-04  0.28300738E-04
  0.26679572E-04  0.24886410E-04  0.22940460E-04  0.20861620E-04  0.18670299E-04
  0.16387241E-04  0.14033355E-04  0.11629539E-04  0.91965189E-05  0.67546870E-05
  0.43239496E-05  0.19235826E-05 -0.42790446E-06 -0.27128940E-05 -0.49147763E-05
 -0.70180537E-05 -0.90084337E-05 -0.10872910E-04 -0.12599829E-04 -0.14178951E-04
 -0.15601487E-04 -0.16860136E-04 -0.17949098E-04 -0.18864082E-04 -0.19602304E-04
 -0.20162461E-04 -0.20544710E-04 -0.20750623E-04 -0.20783142E-04 -0.20646515E-04
 -0.20346231E-04 -0.19888944E-04 -0.19282389E-04 -0.18535292E-04 -0.17657277E-04
 -0.16658765E-04 -0.15550871E-04 -0.14345300E-04 -0.13054234E-04 -0.11690229E-04
 -0.10266101E-04 -0.87948225E-05 -0.72894101E-05 -0.57628250E-05 -0.42278692E-05
 -0.26970883E-05 -0.11826789E-05  0.30359973E-06  0.17505077E-05  0.31474006E-05
  0.44842991E-05  0.57519513E-05  0.69418884E-05  0.80464716E-05  0.90589328E-05
  0.99734065E-05  0.10784954E-04  0.11489578E-04  0.12084236E-04  0.12566835E-04
  0.12936227E-04  0.13192199E-04  0.13335445E-04  0.13367542E-04  0.13290918E-04
  0.13108807E-04  0.12825210E-04  0.12444837E-04  0.11973061E-04  0.11415853E-04
  0.10779723E-04  0.10071657E-04  0.92990453E-05  0.84696193E-05  0.75913793E-05
  0.66725254E-05  0.57213878E-05  0.47463575E-05  0.37558182E-05  0.27580805E-05
  0.17613169E-05  0.77350093E-06 -0.19765162E-06 -0.11447380E-05 -0.20607199E-05
 -0.29389705E-05 -0.37733178E-05 -0.45580826E-05 -0.52881128E-05 -0.59588112E-05
 -0.65661599E-05 -0.71067384E-05 -0.75777371E-05 -0.79769655E-05 -0.83028557E-05
 -0.85544603E-05 -0.87314457E-05 -0.88340810E-05 -0.88632223E-05 -0.88202920E-05
 -0.87072553E-05 -0.85265923E-05 -0.82812662E-05 -0.79746896E-05 -0.76106868E-05
 -0.71934547E-05 -0.67275207E-05 -0.62177000E-05 -0.56690502E-05 -0.50868267E-05
 -0.44764358E-05 -0.38433892E-05 -0.31932573E-05 -0.25316242E-05 -0.18640430E-05
 -0.11959922E-05 -0.53283413E-06  0.12022497E-06  0.75817311E-06  0.13762278E-05
  0.19698692E-05  0.25348701E-05  0.30673230E-05  0.35636645E-05  0.40206958E-05
  0.44356005E-05  0.48059582E-05  0.51297558E-05  0.54053944E-05  0.56316929E-05
  0.58078889E-05  0.59336354E-05  0.60089949E-05  0.60344302E-05  0.60107921E-05
  0.59393046E-05  0.58215471E-05  0.56594344E-05  0.54551946E-05  0.52113447E-05
  0.49306647E-05  0.46161696E-05  0.42710813E-05  0.38987980E-05  0.35028640E-05
  0.30869385E-05  0.26547640E-05  0.22101349E-05  0.17568666E-05  0.12987646E-05
  0.83959443E-06  0.38305284E-06 -0.67260314E-07 -0.50786852E-06 -0.93544371E-06
 -0.13468296E-05 -0.17390632E-05 -0.21093943E-05 -0.24553034E-05 -0.27745162E-05
 -0.30650175E-05 -0.33250612E-05 -0.35531795E-05 -0.37481882E-05 -0.39091907E-05
 -0.40355795E-05 -0.41270347E-05 -0.41835215E-05 -0.42052840E-05 -0.41928383E-05
 -0.41469626E-05 -0.40686861E-05 -0.39592756E-05 -0.38202209E-05 -0.36532183E-05
 -0.34601535E-05 -0.32430826E-05 -0.30042125E-05 -0.27458803E-05 -0.24705326E-05
 -0.21807033E-05 -0.18789924E-05 -0.15680439E-05 -0.12505236E-05 -0.92909820E-06
 -0.60641351E-06 -0.28507421E-06  0.32376129E-07  0.34347401E-06  0.64585405E-06
  0.93726578E-06  0.12155894E-05  0.14788498E-05  0.17252301E-05  0.19530821E-05
  0.21609370E-05  0.23475131E-05  0.25117225E-05  0.26526763E-05  0.27696874E-05
  0.28622726E-05  0.29301524E-05  0.29732491E-05  0.29916841E-05  0.29857726E-05
  0.29560182E-05  0.29031045E-05  0.28278871E-05  0.27313829E-05  0.26147597E-05
  0.24793234E-05  0.23265056E-05  0.21578498E-05  0.19749968E-05  0.17796703E-05
  0.15736613E-05  0.13588128E-05  0.11370044E-05  0.91013644E-06  0.68011455E-06
  0.44883462E-06  0.21816784E-06 -0.10053726E-07 -0.23405093E-06 -0.45211067E-06
 -0.66259833E-06 -0.86396927E-06 -0.10547795E-05 -0.12336952E-05 -0.13995015E-05
 -0.15511097E-05 -0.16875640E-05 -0.18080463E-05 -0.19118804E-05 -0.19985348E-05
 -0.20676244E-05 -0.21189108E-05 -0.21523015E-05 -0.21678484E-05 -0.21657443E-05
 -0.21463191E-05 -0.21100350E-05 -0.20574800E-05 -0.19893614E-05 -0.19064977E-05
 -0.18098106E-05 -0.17003155E-05 -0.15791119E-05 -0.14473731E-05 -0.13063360E-05
 -0.11572895E-05 -0.10015639E-05 -0.84051951E-06 -0.67553508E-06 -0.50799686E-06
 -0.33928725E-06 -0.17077401E-06 -0.37996233E-08  0.16032894E-06  0.32034996E-06
  0.47505616E-06  0.62330343E-06  0.76401874E-06  0.89620748E-06  0.10189600E-05
  0.11314573E-05  0.12329761E-05  0.13228928E-05  0.14006870E-05  0.14659434E-05
  0.15183538E-05  0.15577173E-05  0.15839404E-05  0.15970359E-05  0.15971206E-05
  0.15844132E-05  0.15592303E-05  0.15219827E-05  0.14731701E-05  0.14133762E-05
  0.13432620E-05  0.12635597E-05  0.11750657E-05  0.10786330E-05  0.97516358E-06
  0.86560041E-06  0.75091931E-06  0.63212064E-06  0.51022096E-06  0.38624469E-06
  0.26121584E-06  0.13614990E-06  0.12045923E-07 -0.11012116E-06 -0.22940783E-06
 -0.34490900E-06 -0.45576456E-06 -0.56116543E-06 -0.66035921E-06 -0.75265515E-06
 -0.83742871E-06 -0.91412535E-06 -0.98226386E-06 -0.10414390E-05 -0.10913233E-05
 -0.11316688E-05 -0.11623072E-05 -0.11831504E-05 -0.11941895E-05 -0.11954940E-05
 -0.11872096E-05 -0.11695561E-05 -0.11428242E-05 -0.11073724E-05 -0.10636228E-05
 -0.10120566E-05 -0.95321000E-06 -0.88766819E-06 -0.81606055E-06 -0.73905472E-06
 -0.65735072E-06 -0.57167487E-06 -0.48277361E-06 -0.39140730E-06 -0.29834390E-06
 -0.20435280E-06 -0.11019865E-06 -0.16635422E-07  0.75599471E-07  0.16579073E-06
  0.25325050E-06  0.33732344E-06  0.41739137E-06  0.49287762E-06  0.56325098E-06
  0.62802917E-06  0.68678194E-06  0.73913366E-06  0.78476547E-06  0.82341691E-06
  0.85488712E-06  0.87903549E-06  0.89578184E-06  0.90510615E-06  0.90704778E-06
  0.90170423E-06  0.88922953E-06  0.86983207E-06  0.84377219E-06  0.81135927E-06
  0.77294854E-06  0.72893758E-06  0.67976248E-06  0.62589383E-06  0.56783245E-06
  0.50610492E-06  0.44125907E-06  0.37385928E-06  0.30448172E-06  0.23370966E-06
  0.16212866E-06  0.90321955E-07  0.18865817E-07 -0.51674907E-07 -0.12075110E-06
 -0.18783352E-06 -0.25241668E-06 -0.31402252E-06 -0.37220379E-06 -0.42654715E-06
 -0.47667594E-06 -0.52225263E-06 -0.56298093E-06 -0.59860749E-06 -0.62892335E-06
 -0.65376486E-06 -0.67301437E-06 -0.68660048E-06 -0.69449789E-06 -0.69672696E-06
 -0.69335287E-06 -0.68448443E-06 -0.67027259E-06 -0.65090864E-06 -0.62662207E-06
 -0.59767819E-06 -0.56437556E-06 -0.52704305E-06 -0.48603685E-06 -0.44173722E-06
 -0.39454514E-06 -0.34487879E-06 -0.29317003E-06 -0.23986072E-06 -0.18539911E-06
 -0.13023616E-06 -0.74821953E-07 -0.19602085E-07  0.34985767E-07  0.88515225E-07
  0.14057443E-06  0.19076912E-06  0.23872547E-06  0.28409281E-06  0.32654608E-06
  0.36578801E-06  0.40155112E-06  0.43359940E-06  0.46172976E-06  0.48577315E-06
  0.50559546E-06  0.52109803E-06  0.53221800E-06  0.53892827E-06  0.54123721E-06
  0.53918810E-06  0.53285830E-06  0.52235817E-06  0.50782970E-06  0.48944495E-06
  0.46740430E-06  0.44193441E-06  0.41328607E-06  0.38173190E-06  0.34756386E-06
  0.31109064E-06  0.27263501E-06  0.23253108E-06  0.19112140E-06  0.14875425E-06
  0.10578067E-06  0.62551721E-07  0.19415665E-07 -0.23284767E-07 -0.65215013E-07
 -0.10605123E-06 -0.14548271E-06 -0.18321418E-06 -0.21896793E-06 -0.25248578E-06
 -0.28353085E-06 -0.31188920E-06 -0.33737114E-06 -0.35981248E-06 -0.37907543E-06
 -0.39504939E-06 -0.40765142E-06 -0.41682653E-06 -0.42254777E-06 -0.42481601E-06
 -0.42365962E-06 -0.41913382E-06 -0.41131993E-06 -0.40032432E-06 -0.38627728E-06
 -0.36933162E-06 -0.34966120E-06 -0.32745922E-06 -0.30293646E-06 -0.27631937E-06
 -0.24784802E-06 -0.21777409E-06 -0.18635863E-06 -0.15386994E-06 -0.12058127E-06
 -0.86768648E-07 -0.52708603E-07 -0.18675989E-07  0.15058186E-07  0.48228863E-07
  0.80578954E-07  0.11186129E-06  0.14184043E-06  0.17029441E-06  0.19701631E-06
  0.22181570E-06  0.24451995E-06  0.26497534E-06  0.28304807E-06  0.29862505E-06
  0.31161451E-06  0.32194648E-06  0.32957304E-06  0.33446844E-06  0.33662899E-06
  0.33607279E-06  0.33283938E-06  0.32698905E-06  0.31860218E-06  0.30777826E-06
  0.29463492E-06  0.27930675E-06  0.26194398E-06  0.24271110E-06  0.22178540E-06
  0.19935535E-06  0.17561901E-06  0.15078229E-06  0.12505722E-06  0.98660215E-07
  0.71810285E-07  0.44727251E-07  0.17629999E-07 -0.92652476E-08 -0.35746614E-07
 -0.61608203E-07 -0.86651652E-07 -0.11068762E-06 -0.13353717E-06 -0.15503306E-06
 -0.17502093E-06 -0.19336038E-06 -0.20992587E-06 -0.22460756E-06 -0.23731199E-06
 -0.24796261E-06 -0.25650015E-06 -0.26288293E-06 -0.26708692E-06 -0.26910574E-06
 -0.26895047E-06 -0.26664937E-06 -0.26224743E-06 -0.25580578E-06 -0.24740104E-06
 -0.23712452E-06 -0.22508127E-06 -0.21138912E-06 -0.19617757E-06 -0.17958661E-06
 -0.16176549E-06 -0.14287139E-06 -0.12306814E-06 -0.10252475E-06 -0.81414081E-07
 -0.59911371E-07 -0.38192838E-07 -0.16434263E-07  0.51904029E-08  0.26510397E-07
  0.47359464E-07  0.67577122E-07  0.87009866E-07  0.10551231E-06  0.12294822E-06
  0.13919153E-06  0.15412718E-06  0.16765190E-06  0.17967492E-06  0.19011850E-06
  0.19891842E-06  0.20602431E-06  0.21139991E-06  0.21502313E-06  0.21688613E-06
  0.21699516E-06  0.21537035E-06  0.21204540E-06  0.20706713E-06  0.20049496E-06
  0.19240030E-06  0.18286582E-06  0.17198465E-06  0.15985955E-06  0.14660195E-06
  0.13233097E-06  0.11717240E-06  0.10125758E-06  0.84722313E-07  0.67705757E-07
 atomic pseudo charge-density
  0.12000000E+02  0.11988408E+02  0.11953820E+02  0.11896795E+02  0.11818235E+02
  0.11719347E+02  0.11601586E+02  0.11466601E+02  0.11316171E+02  0.11152139E+02
  0.10976362E+02  0.10790652E+02  0.10596739E+02  0.10396240E+02  0.10190630E+02
  0.99812362E+01  0.97692263E+01  0.95556128E+01  0.93412586E+01  0.91268867E+01
  0.89130933E+01  0.87003618E+01  0.84890775E+01  0.82795415E+01  0.80719847E+01
  0.78665803E+01  0.76634547E+01  0.74626978E+01  0.72643710E+01  0.70685148E+01
  0.68751544E+01  0.66843048E+01  0.64959743E+01  0.63101680E+01  0.61268896E+01
  0.59461435E+01  0.57679355E+01  0.55922743E+01  0.54191711E+01  0.52486404E+01
  0.50806998E+01  0.49153696E+01  0.47526731E+01  0.45926355E+01  0.44352839E+01
  0.42806468E+01  0.41287536E+01  0.39796341E+01  0.38333181E+01  0.36898347E+01
  0.35492124E+01  0.34114782E+01  0.32766574E+01  0.31447736E+01  0.30158480E+01
  0.28898992E+01  0.27669432E+01  0.26469932E+01  0.25300593E+01  0.24161486E+01
  0.23052647E+01  0.21974084E+01  0.20925768E+01  0.19907641E+01  0.18919609E+01
  0.17961547E+01  0.17033301E+01  0.16134681E+01  0.15265470E+01  0.14425422E+01
  0.13614260E+01  0.12831682E+01  0.12077360E+01  0.11350939E+01  0.10652043E+01
  0.99802700E+00  0.93352001E+00  0.87163920E+00  0.81233858E+00  0.75557048E+00
  0.70128560E+00  0.64943318E+00  0.59996111E+00  0.55281609E+00  0.50794372E+00
  0.46528863E+00  0.42479460E+00  0.38640472E+00  0.35006144E+00  0.31570670E+00
  0.28328209E+00  0.25272888E+00  0.22398820E+00  0.19700107E+00  0.17170854E+00
  0.14805178E+00  0.12597215E+00  0.10541130E+00  0.86311266E-01  0.68614519E-01
  0.52264066E-01  0.37203513E-01  0.23377135E-01  0.10729946E-01 -0.79224843E-03
 -0.11242781E-01 -0.20674077E-01 -0.29137596E-01 -0.36683787E-01 -0.43362043E-01
 -0.49220658E-01 -0.54306793E-01 -0.58666435E-01 -0.62344370E-01 -0.65384154E-01
 -0.67828087E-01 -0.69717191E-01 -0.71091193E-01 -0.71988505E-01 -0.72446218E-01
 -0.72500085E-01 -0.72184517E-01 -0.71532582E-01 -0.70575998E-01 -0.69345136E-01
 -0.67869026E-01 -0.66175361E-01 -0.64290504E-01 -0.62239505E-01 -0.60046106E-01
 -0.57732764E-01 -0.55320663E-01 -0.52829737E-01 -0.50278687E-01 -0.47685009E-01
 -0.45065015E-01 -0.42433862E-01 -0.39805576E-01 -0.37193086E-01 -0.34608249E-01
 -0.32061886E-01 -0.29563812E-01 -0.27122871E-01 -0.24746969E-01 -0.22443109E-01
 -0.20217429E-01 -0.18075234E-01 -0.16021039E-01 -0.14058597E-01 -0.12190946E-01
 -0.10420440E-01 -0.87487868E-02 -0.71770874E-02 -0.57058720E-02 -0.43351368E-02
 -0.30643805E-02 -0.18926406E-02 -0.81852852E-03  0.15973482E-03  0.10442852E-02
  0.18375812E-02  0.25423714E-02  0.31616627E-02  0.36986889E-02  0.41568808E-02
  0.45398372E-02  0.48512967E-02  0.50951109E-02  0.52752186E-02  0.53956213E-02
  0.54603594E-02  0.54734907E-02  0.54390686E-02  0.53611231E-02  0.52436419E-02
  0.50905534E-02  0.49057109E-02  0.46928775E-02  0.44557132E-02  0.41977625E-02
  0.39224434E-02  0.36330377E-02  0.33326829E-02  0.30243640E-02  0.27109082E-02
  0.23949790E-02  0.20790726E-02  0.17655147E-02  0.14564588E-02  0.11538843E-02
  0.85959751E-03  0.57523131E-03  0.30224729E-03  0.41937820E-04 -0.20457087E-03
 -0.43631502E-03 -0.65248903E-03 -0.85244054E-03 -0.10356651E-02 -0.12018001E-02
 -0.13506187E-02 -0.14820231E-02 -0.15960375E-02 -0.16928007E-02 -0.17725590E-02
 -0.18356582E-02 -0.18825361E-02 -0.19137142E-02 -0.19297903E-02 -0.19314304E-02
 -0.19193608E-02 -0.18943600E-02 -0.18572519E-02 -0.18088973E-02 -0.17501872E-02
 -0.16820354E-02 -0.16053715E-02 -0.15211347E-02 -0.14302669E-02 -0.13337070E-02
 -0.12323852E-02 -0.11272172E-02 -0.10190997E-02 -0.90890531E-03 -0.79747835E-03
 -0.68563103E-03 -0.57413976E-03 -0.46374203E-03 -0.35513360E-03 -0.24896610E-03
 -0.14584498E-03 -0.46327866E-04  0.49076762E-04  0.13991050E-03  0.22576562E-03
  0.30628537E-03  0.38116386E-03  0.45014577E-03  0.51302567E-03  0.56964713E-03
  0.61990149E-03  0.66372649E-03  0.70110465E-03  0.73206137E-03  0.75666298E-03
  0.77501451E-03  0.78725740E-03  0.79356700E-03  0.79415011E-03  0.78924222E-03
  0.77910492E-03  0.76402309E-03  0.74430210E-03  0.72026508E-03  0.69225008E-03
  0.66060736E-03  0.62569658E-03  0.58788421E-03  0.54754087E-03  0.50503882E-03
  0.46074951E-03  0.41504125E-03  0.36827698E-03  0.32081216E-03  0.27299281E-03
  0.22515367E-03  0.17761647E-03  0.13068844E-03  0.84660836E-04  0.39807754E-04
 -0.36149956E-05 -0.45370813E-04 -0.85243094E-04 -0.12303585E-03 -0.15857419E-03
 -0.19170465E-03 -0.22229534E-03 -0.25023602E-03 -0.27543797E-03 -0.29783377E-03
 -0.31737695E-03 -0.33404149E-03 -0.34782124E-03 -0.35872926E-03 -0.36679699E-03
 -0.37207340E-03 -0.37462403E-03 -0.37452997E-03 -0.37188679E-03 -0.36680337E-03
 -0.35940074E-03 -0.34981088E-03 -0.33817543E-03 -0.32464451E-03 -0.30937538E-03
 -0.29253118E-03 -0.27427973E-03 -0.25479220E-03 -0.23424196E-03 -0.21280331E-03
 -0.19065040E-03 -0.16795603E-03 -0.14489064E-03 -0.12162126E-03 -0.98310541E-04
 -0.75115872E-04 -0.52188521E-04 -0.29672871E-04 -0.77057177E-05  0.13584363E-04
  0.34077569E-04  0.53663358E-04  0.72240852E-04  0.89719171E-04  0.10601769E-03
  0.12106621E-03  0.13480511E-03  0.14718533E-03  0.15816837E-03  0.16772620E-03
  0.17584110E-03  0.18250542E-03  0.18772132E-03  0.19150043E-03  0.19386349E-03
  0.19483988E-03  0.19446719E-03  0.19279070E-03  0.18986283E-03  0.18574260E-03
  0.18049499E-03  0.17419039E-03  0.16690393E-03  0.15871483E-03  0.14970581E-03
  0.13996239E-03  0.12957228E-03  0.11862472E-03  0.10720987E-03  0.95418185E-04
  0.83339809E-04  0.71064022E-04  0.58678666E-04  0.46269626E-04  0.33920330E-04
  0.21711278E-04  0.97196130E-05 -0.19812828E-05 -0.13322151E-04 -0.24238182E-04
 -0.34669305E-04 -0.44560434E-04 -0.53861677E-04 -0.62528509E-04 -0.70521897E-04
 -0.77808395E-04 -0.84360193E-04 -0.90155132E-04 -0.95176684E-04 -0.99413890E-04
 -0.10286127E-03 -0.10551870E-03 -0.10739126E-03 -0.10848903E-03 -0.10882691E-03
 -0.10842435E-03 -0.10730513E-03 -0.10549704E-03 -0.10303162E-03 -0.99943831E-04
 -0.96271716E-04 -0.92056090E-04 -0.87340185E-04 -0.82169299E-04 -0.76590444E-04
 -0.70651995E-04 -0.64403333E-04 -0.57894498E-04 -0.51175847E-04 -0.44297714E-04
 -0.37310088E-04 -0.30262295E-04 -0.23202696E-04 -0.16178401E-04 -0.92349970E-05
 -0.24162947E-05  0.42359088E-05  0.10682045E-04  0.16884971E-04  0.22810142E-04
  0.28425768E-04  0.33702943E-04  0.38615756E-04  0.43141379E-04  0.47260127E-04
  0.50955509E-04  0.54214244E-04  0.57026261E-04  0.59384685E-04  0.61285788E-04
  0.62728935E-04  0.63716507E-04  0.64253802E-04  0.64348927E-04  0.64012671E-04
  0.63258365E-04  0.62101728E-04  0.60560704E-04  0.58655290E-04  0.56407349E-04
  0.53840423E-04  0.50979536E-04  0.47850998E-04  0.44482194E-04  0.40901386E-04
  0.37137506E-04  0.33219949E-04  0.29178376E-04  0.25042511E-04  0.20841949E-04
  0.16605968E-04  0.12363347E-04  0.81421945E-05  0.39697803E-05 -0.12761745E-06
 -0.41248583E-05 -0.79980735E-05 -0.11724789E-04 -0.15284035E-04 -0.18656447E-04
 -0.21824349E-04 -0.24771827E-04 -0.27484790E-04 -0.29951015E-04 -0.32160180E-04
 -0.34103887E-04 -0.35775669E-04 -0.37170984E-04 -0.38287198E-04 -0.39123558E-04
 -0.39681151E-04 -0.39962854E-04 -0.39973270E-04 -0.39718661E-04 -0.39206868E-04
 -0.38447220E-04 -0.37450443E-04 -0.36228555E-04 -0.34794761E-04 -0.33163337E-04
 -0.31349517E-04 -0.29369370E-04 -0.27239678E-04 -0.24977810E-04 -0.22601600E-04
 -0.20129218E-04 -0.17579046E-04 -0.14969559E-04 -0.12319196E-04 -0.96462491E-05
 -0.69687459E-05 -0.43043398E-05 -0.16702048E-05  0.91706415E-06  0.34415452E-05
  0.58880771E-05  0.82423397E-05  0.10490928E-04  0.12621417E-04  0.14622422E-04
  0.16483648E-04  0.18195931E-04  0.19751274E-04  0.21142872E-04  0.22365131E-04
  0.23413677E-04  0.24285358E-04  0.24978237E-04  0.25491580E-04  0.25825834E-04
  0.25982600E-04  0.25964596E-04  0.25775618E-04  0.25420493E-04  0.24905023E-04
  0.24235930E-04  0.23420795E-04  0.22467985E-04  0.21386590E-04  0.20186346E-04
  0.18877558E-04  0.17471024E-04  0.15977954E-04  0.14409890E-04  0.12778626E-04
  0.11096124E-04  0.93744376E-05  0.76256281E-05  0.58616902E-05  0.40944748E-05
  0.23356153E-05  0.59645779E-06 -0.11120067E-05 -0.27792058E-05 -0.43950454E-05
 -0.59499655E-05 -0.74349907E-05 -0.88417770E-05 -0.10162653E-04 -0.11390655E-04
 -0.12519561E-04 -0.13543913E-04 -0.14459037E-04 -0.15261064E-04 -0.15946931E-04
 -0.16514391E-04 -0.16962008E-04 -0.17289155E-04 -0.17496000E-04 -0.17583487E-04
 -0.17553321E-04 -0.17407938E-04 -0.17150478E-04 -0.16784751E-04 -0.16315198E-04
 -0.15746851E-04 -0.15085293E-04 -0.14336606E-04 -0.13507328E-04 -0.12604398E-04
 -0.11635105E-04 -0.10607036E-04 -0.95280192E-05 -0.84060716E-05 -0.72493409E-05
 -0.60660523E-05 -0.48644531E-05 -0.36527595E-05 -0.24391034E-05 -0.12314820E-05
 -0.37707967E-07  0.11346376E-05  0.22782501E-05  0.33861437E-05  0.44516911E-05
  0.54686597E-05  0.64312452E-05  0.73341017E-05  0.81723679E-05  0.89416905E-05
  0.96382428E-05  0.10258741E-04  0.10800456E-04  0.11261220E-04  0.11639433E-04
  0.11934061E-04  0.12144636E-04  0.12271244E-04  0.12314522E-04  0.12275637E-04
  0.12156275E-04  0.11958619E-04  0.11685324E-04  0.11339496E-04  0.10924662E-04
  0.10444738E-04  0.99040020E-05  0.93070538E-05  0.86587843E-05  0.79643368E-05
  0.72290697E-05  0.64585179E-05  0.56583540E-05  0.48343486E-05  0.39923315E-05
  0.31381525E-05  0.22776430E-05  0.14165785E-05  0.56064136E-06 -0.28461427E-06
 -0.11137967E-05 -0.19217094E-05 -0.27033812E-05 -0.34540956E-05 -0.41694172E-05
 -0.48452158E-05 -0.54776888E-05 -0.60633805E-05 -0.65991990E-05 -0.70824305E-05
 -0.75107511E-05 -0.78822354E-05 -0.81953630E-05 -0.84490216E-05 -0.86425077E-05
 -0.87755249E-05 -0.88481791E-05 -0.88609714E-05 -0.88147885E-05 -0.87108908E-05
 -0.85508979E-05 -0.83367728E-05 -0.80708030E-05 -0.77555807E-05 -0.73939808E-05
 -0.69891378E-05 -0.65444208E-05 -0.60634079E-05 -0.55498595E-05 -0.50076907E-05
 -0.44409430E-05 -0.38537558E-05 -0.32503381E-05 -0.26349392E-05 -0.20118205E-05
 -0.13852273E-05 -0.75936089E-06 -0.13835204E-06  0.47376542E-06  0.10730794E-05
  0.16558235E-05  0.22183995E-05  0.27573982E-05  0.32696195E-05  0.37520894E-05
  0.42020768E-05  0.46171075E-05  0.49949763E-05  0.53337577E-05  0.56318140E-05
  0.58878020E-05  0.61006770E-05  0.62696954E-05  0.63944146E-05  0.64746918E-05
  0.65106800E-05  0.65028226E-05  0.64518460E-05  0.63587508E-05  0.62248004E-05
  0.60515094E-05  0.58406291E-05  0.55941330E-05  0.53142000E-05  0.50031969E-05
  0.46636604E-05  0.42982770E-05  0.39098639E-05  0.35013478E-05  0.30757440E-05
  0.26361355E-05  0.21856512E-05  0.17274450E-05  0.12646742E-05  0.80047863E-06
  0.33796050E-06 -0.11983587E-06 -0.56994314E-06 -0.10094894E-05 -0.14357159E-05
 -0.18459932E-05 -0.22378370E-05 -0.26089222E-05 -0.29570961E-05 -0.32803897E-05
 -0.35770283E-05 -0.38454401E-05 -0.40842637E-05 -0.42923542E-05 -0.44687872E-05
 -0.46128615E-05 -0.47241011E-05 -0.48022543E-05 -0.48472926E-05 -0.48594070E-05
 -0.48390041E-05 -0.47866998E-05 -0.47033124E-05 -0.45898538E-05 -0.44475206E-05
 -0.42776828E-05 -0.40818727E-05 -0.38617718E-05 -0.36191983E-05 -0.33560922E-05
 -0.30745013E-05 -0.27765658E-05 -0.24645028E-05 -0.21405906E-05 -0.18071526E-05
 -0.14665413E-05 -0.11211227E-05 -0.77325969E-06 -0.42529714E-06 -0.79546349E-07
  0.26172970E-06  0.59633057E-06  0.92213206E-06  0.12370991E-05  0.15392979E-05
  0.18269074E-05  0.20982295E-05  0.23516985E-05  0.25858897E-05  0.27995267E-05
  0.29914875E-05  0.31608101E-05  0.33066961E-05  0.34285138E-05  0.35258001E-05
  0.35982608E-05  0.36457705E-05  0.36683708E-05  0.36662673E-05  0.36398265E-05
  0.35895707E-05  0.35161722E-05  0.34204469E-05  0.33033470E-05  0.31659523E-05
  0.30094617E-05  0.28351831E-05  0.26445237E-05  0.24389791E-05  0.22201217E-05
  0.19895902E-05  0.17490768E-05  0.15003160E-05  0.12450721E-05  0.98512739E-06
  0.72227012E-06  0.45828243E-06  0.19492884E-06 -0.66055189E-07 -0.32297431E-06
 -0.57418388E-06 -0.81810009E-06 -0.10532096E-05 -0.12780783E-05 -0.14913601E-05
 -0.16918042E-05 -0.18782619E-05 -0.20496930E-05 -0.22051713E-05 -0.23438885E-05
 -0.24651585E-05 -0.25684195E-05 -0.26532370E-05 -0.27193037E-05 -0.27664406E-05
 -0.27945960E-05 -0.28038443E-05 -0.27943835E-05 -0.27665322E-05 -0.27207261E-05
 -0.26575132E-05 -0.25775488E-05 -0.24815896E-05 -0.23704875E-05 -0.22451825E-05
 -0.21066953E-05 -0.19561196E-05 -0.17946137E-05 -0.16233923E-05 -0.14437176E-05
 -0.12568900E-05 -0.10642398E-05 -0.86711721E-06 -0.66688383E-06 -0.46490322E-06
 -0.26253205E-06 -0.61111237E-07  0.13804264E-06  0.33364563E-06  0.52445442E-06
  0.70927394E-06  0.88696454E-06  0.10564487E-05  0.12167174E-05  0.13668355E-05
  0.15059474E-05  0.16332808E-05  0.17481516E-05  0.18499664E-05  0.19382256E-05
  0.20125254E-05  0.20725588E-05  0.21181169E-05  0.21490885E-05  0.21654599E-05
  0.21673131E-05  0.21548249E-05  0.21282637E-05  0.20879868E-05  0.20344369E-05
  0.19681383E-05  0.18896921E-05  0.17997711E-05  0.16991150E-05  0.15885243E-05
  0.14688544E-05  0.13410092E-05  0.12059346E-05  0.10646118E-05  0.91805046E-06
  0.76728153E-06  0.61335052E-06  0.45731026E-06  0.30021403E-06  0.14310861E-06
 -0.12972419E-07 -0.16701533E-06 -0.31803257E-06 -0.46506889E-06 -0.60720720E-06
 -0.74357406E-06 -0.87334480E-06 -0.99574837E-06 -0.11100716E-05 -0.12156632E-05
 -0.13119373E-05 -0.13983763E-05 -0.14745334E-05 -0.15400347E-05 -0.15945810E-05
 -0.16379483E-05 -0.16699886E-05 -0.16906301E-05 -0.16998762E-05 -0.16978053E-05
 -0.16845687E-05 -0.16603891E-05 -0.16255579E-05 -0.15804331E-05 -0.15254354E-05
 -0.14610453E-05 -0.13877989E-05 -0.13062837E-05 -0.12171345E-05 -0.11210283E-05
 -0.10186795E-05 -0.91083492E-06 -0.79826843E-06 -0.68177552E-06 -0.56216796E-06
 -0.44026829E-06 -0.31690428E-06 -0.19290351E-06 -0.69087971E-07  0.53731258E-07
  0.17475914E-06  0.29322168E-06  0.40837076E-06  0.51948869E-06  0.62589250E-06
  0.72693808E-06  0.82202384E-06  0.91059419E-06  0.99214263E-06  0.10662145E-05
  0.11324092E-05  0.11903825E-05  0.12398477E-05  0.12805775E-05  0.13124039E-05
  0.13352194E-05  0.13489767E-05  0.13536883E-05  0.13494259E-05  0.13363190E-05
  0.13145536E-05  0.12843704E-05  0.12460625E-05  0.11999728E-05  0.11464916E-05
  0.10860529E-05  0.10191318E-05  0.94624040E-06  0.86792414E-06  0.78475812E-06
  0.69734278E-06  0.60629980E-06  0.51226777E-06  0.41589784E-06  0.31784935E-06
  0.21878542E-06  0.11936856E-06  0.20256384E-07 -0.77902671E-07 -0.17447346E-06
 -0.26883815E-06 -0.36040006E-06 -0.44858735E-06 -0.53285647E-06 -0.61269545E-06
 -0.68762687E-06 -0.75721063E-06 -0.82104645E-06 -0.87877604E-06 -0.93008499E-06
 -0.97470441E-06 -0.10124122E-05 -0.10430338E-05 -0.10664434E-05 -0.10825636E-05
 -0.10913656E-05 -0.10928693E-05 -0.10871420E-05 -0.10742979E-05 -0.10544969E-05
 -0.10279427E-05 -0.99488131E-06 -0.95559907E-06 -0.91042008E-06 -0.85970385E-06
 -0.80384256E-06 -0.74325815E-06 -0.67839923E-06 -0.60973790E-06 -0.53776636E-06
 -0.46299352E-06 -0.38594147E-06 -0.30714195E-06 -0.22713270E-06 -0.14645392E-06
 -0.65644704E-07  0.14760533E-07  0.94235479E-07  0.17226532E-06  0.24834998E-06
  0.32200731E-06  0.39277601E-06  0.46021850E-06  0.52392355E-06  0.58350870E-06
  0.63862252E-06  0.68894656E-06  0.73419718E-06  0.77412703E-06  0.80852631E-06
  0.83722381E-06  0.86008764E-06  0.87702567E-06  0.88798583E-06  0.89295596E-06
  0.89196358E-06  0.88507525E-06  0.87239578E-06  0.85406717E-06  0.83026729E-06
  0.80120836E-06  0.76713522E-06  0.72832339E-06  0.68507695E-06  0.63772627E-06
  0.58662555E-06  0.53215027E-06  0.47469451E-06  0.41466812E-06  0.35249394E-06
  0.28860481E-06  0.22344068E-06  0.15744555E-06  0.91064611E-07  0.24741189E-07
 -0.41086099E-07 -0.10598622E-06 -0.16953851E-06 -0.23133531E-06 -0.29098459E-06
 -0.34811236E-06 -0.40236494E-06 -0.45341117E-06 -0.50094431E-06 -0.54468388E-06
 -0.58437726E-06 -0.61980104E-06 -0.65076230E-06 -0.67709951E-06 -0.69868335E-06
 -0.71541725E-06 -0.72723768E-06 -0.73411431E-06 -0.73604982E-06 -0.73307963E-06
 -0.72527132E-06 -0.71272388E-06 -0.69556674E-06 -0.67395866E-06 -0.64808633E-06
 -0.61816294E-06 -0.58442646E-06 -0.54713786E-06 -0.50657913E-06 -0.46305121E-06
 -0.41687187E-06 -0.36837336E-06 -0.31790013E-06 -0.26580639E-06 -0.21245370E-06
   16.2516435017787      T
 Non local Part
           1           2   1.24671907334008     
   5.45371969285610       -13.6572276949910       -13.6572276949910     
   12.6293038808366     
 Reciprocal Space Part
  0.00000000E+00  0.19837572E+00  0.39591700E+00  0.59179737E+00  0.78520606E+00
  0.97535536E+00  0.11614873E+01  0.13428798E+01  0.15188515E+01  0.16887659E+01
  0.18520346E+01  0.20081187E+01  0.21565300E+01  0.22968304E+01  0.24286307E+01
  0.25515886E+01  0.26654056E+01  0.27698236E+01  0.28646215E+01  0.29496108E+01
  0.30246323E+01  0.30895521E+01  0.31442586E+01  0.31886601E+01  0.32226832E+01
  0.32462719E+01  0.32593878E+01  0.32620113E+01  0.32541440E+01  0.32358118E+01
  0.32070689E+01  0.31680032E+01  0.31187409E+01  0.30594532E+01  0.29903618E+01
  0.29117447E+01  0.28239424E+01  0.27273620E+01  0.26224818E+01  0.25098641E+01
  0.23901066E+01  0.22639428E+01  0.21321400E+01  0.19955459E+01  0.18550736E+01
  0.17116940E+01  0.15664274E+01  0.14203321E+01  0.12744929E+01  0.11300070E+01
  0.98797001E+00  0.84945983E+00  0.71552137E+00  0.58715046E+00  0.46527819E+00
  0.35074338E+00  0.24434154E+00  0.14668644E+00  0.58325079E-01 -0.20334145E-01
 -0.89015484E-01 -0.14758008E+00 -0.19602762E+00 -0.23449533E+00 -0.26325438E+00
 -0.28270358E+00 -0.29336072E+00 -0.29585151E+00 -0.29089650E+00 -0.27929626E+00
 -0.26191505E+00 -0.23965298E+00 -0.21348051E+00 -0.18431506E+00 -0.15310795E+00
 -0.12077431E+00 -0.88186902E-01 -0.56160837E-01 -0.25439892E-01  0.33152288E-02
  0.29536473E-01  0.52755683E-01  0.72609378E-01  0.88841038E-01  0.10130088E+00
  0.10994324E+00  0.11482162E+00  0.11608166E+00  0.11395226E+00  0.10873511E+00
  0.10079287E+00  0.90536511E-01  0.78412006E-01  0.64886795E-01  0.50436362E-01
  0.35531271E-01  0.20624958E-01  0.61425882E-02 -0.75288044E-02 -0.20048661E-01
 Real Space Part
  0.00000000E+00  0.47680822E+00  0.95213009E+00  0.14244845E+01  0.18924006E+01
  0.23544233E+01  0.28091180E+01  0.32550756E+01  0.36909180E+01  0.41153022E+01
  0.45269258E+01  0.49245308E+01  0.53069089E+01  0.56729051E+01  0.60214226E+01
  0.63514259E+01  0.66619454E+01  0.69520803E+01  0.72210026E+01  0.74679598E+01
  0.76922777E+01  0.78933637E+01  0.80707086E+01  0.82238890E+01  0.83525694E+01
  0.84565035E+01  0.85355359E+01  0.85896027E+01  0.86187331E+01  0.86230492E+01
  0.86027667E+01  0.85581945E+01  0.84897346E+01  0.83978816E+01  0.82832212E+01
  0.81464294E+01  0.79882706E+01  0.78095961E+01  0.76113413E+01  0.73945233E+01
  0.71602383E+01  0.69096577E+01  0.66440249E+01  0.63646507E+01  0.60729096E+01
  0.57702342E+01  0.54581103E+01  0.51380712E+01  0.48116916E+01  0.44805807E+01
  0.41463758E+01  0.38107342E+01  0.34753259E+01  0.31418251E+01  0.28119013E+01
  0.24872105E+01  0.21693855E+01  0.18600264E+01  0.15606902E+01  0.12728809E+01
  0.99803863E+00  0.73752949E+00  0.49263488E+00  0.26454111E+00  0.54329253E-01
 -0.13703475E+00 -0.30870948E+00 -0.45998685E+00 -0.59030018E+00 -0.69923148E+00
 -0.78651770E+00 -0.85205591E+00 -0.89590718E+00 -0.91829910E+00 -0.91962697E+00
 -0.90045364E+00 -0.86150726E+00 -0.80367775E+00 -0.72801223E+00 -0.63570760E+00
 -0.52810308E+00 -0.40666745E+00 -0.27296626E+00 -0.12881607E+00  0.22492543E-01
  0.18615232E+00  0.22626889E+00  0.25827336E+00  0.27888024E+00  0.29026499E+00
  0.29252498E+00  0.28579397E+00  0.27031796E+00  0.24639365E+00  0.21437157E+00
  0.17460469E+00  0.12749075E+00  0.74722412E-01  0.94066353E-02  0.00000000E+00
 Reciprocal Space Part
  0.00000000E+00  0.55311161E+00  0.10992311E+01  0.16314455E+01  0.21430000E+01
  0.26273753E+01  0.30783632E+01  0.34901401E+01  0.38573369E+01  0.41751054E+01
  0.44391801E+01  0.46459342E+01  0.47924306E+01  0.48764641E+01  0.48965983E+01
  0.48521916E+01  0.47434158E+01  0.45712636E+01  0.43375470E+01  0.40448831E+01
  0.36966702E+01  0.32970520E+01  0.28508703E+01  0.23636068E+01  0.18413144E+01
  0.12905382E+01  0.71822805E+00  0.13164199E+00 -0.46175575E+00 -0.10544027E+01
 -0.16387492E+01 -0.22073716E+01 -0.27530845E+01 -0.32690514E+01 -0.37488903E+01
 -0.41867741E+01 -0.45775215E+01 -0.49166785E+01 -0.52005881E+01 -0.54264460E+01
 -0.55923430E+01 -0.56972905E+01 -0.57412305E+01 -0.57250290E+01 -0.56504529E+01
 -0.55201298E+01 -0.53374937E+01 -0.51067150E+01 -0.48326178E+01 -0.45205855E+01
 -0.41764573E+01 -0.38064166E+01 -0.34168744E+01 -0.30143498E+01 -0.26053509E+01
 -0.21962568E+01 -0.17932047E+01 -0.14019842E+01 -0.10279401E+01 -0.67588645E+00
 -0.35003302E+00 -0.53926161E-01  0.20959573E+00  0.43843083E+00  0.63122649E+00
  0.78737597E+00  0.90699957E+00  0.99091105E+00  0.10405704E+01  0.10580244E+01
  0.10458365E+01  0.10070085E+01  0.94489487E+00  0.86311294E+00  0.76545115E+00
  0.65577674E+00  0.53794582E+00  0.41571749E+00  0.29267403E+00  0.17214884E+00
  0.57163466E-01 -0.49624974E-01 -0.14596516E+00 -0.23004116E+00 -0.30048999E+00
 -0.35640719E+00 -0.39734072E+00 -0.42327401E+00 -0.43459878E+00 -0.43207905E+00
 -0.41680748E+00 -0.39015555E+00 -0.35371919E+00 -0.30926146E+00 -0.25865394E+00
 -0.20381848E+00 -0.14667071E+00 -0.89066969E-01 -0.32755722E-01  0.20665345E-01
 Real Space Part
  0.00000000E+00 -0.10745567E+01 -0.21445844E+01 -0.32055734E+01 -0.42530524E+01
 -0.52826079E+01 -0.62899027E+01 -0.72706948E+01 -0.82208553E+01 -0.91363869E+01
 -0.10013441E+02 -0.10848333E+02 -0.11637562E+02 -0.12377824E+02 -0.13066026E+02
 -0.13699302E+02 -0.14275028E+02 -0.14790828E+02 -0.15244593E+02 -0.15634488E+02
 -0.15958960E+02 -0.16216751E+02 -0.16406900E+02 -0.16528755E+02 -0.16581974E+02
 -0.16566531E+02 -0.16482717E+02 -0.16331144E+02 -0.16112743E+02 -0.15828764E+02
 -0.15480773E+02 -0.15070649E+02 -0.14600579E+02 -0.14073051E+02 -0.13490844E+02
 -0.12857023E+02 -0.12174924E+02 -0.11448147E+02 -0.10680535E+02 -0.98761659E+01
 -0.90393300E+01 -0.81745166E+01 -0.72863917E+01 -0.63797775E+01 -0.54596301E+01
 -0.45310154E+01 -0.35990836E+01 -0.26690427E+01 -0.17461305E+01 -0.83558504E+00
  0.57385233E-01  0.92763316E+00  0.17701051E+01  0.25798739E+01  0.33521723E+01
  0.40824270E+01  0.47662928E+01  0.53996863E+01  0.59788196E+01  0.65002328E+01
  0.69608262E+01  0.73578906E+01  0.76891353E+01  0.79527154E+01  0.81472550E+01
  0.82718688E+01  0.83261792E+01  0.83103305E+01  0.82249989E+01  0.80713978E+01
  0.78512793E+01  0.75669300E+01  0.72211621E+01  0.68172997E+01  0.63591594E+01
  0.58510277E+01  0.52976306E+01  0.47041005E+01  0.40759402E+01  0.34189790E+01
  0.27393309E+01  0.20433336E+01  0.13374099E+01  0.62870221E+00 -0.69868217E-01
 -0.78074835E+00 -0.95353690E+00 -0.10933383E+01 -0.11855601E+01 -0.12389327E+01
 -0.12533781E+01 -0.12290250E+01 -0.11665331E+01 -0.10668307E+01 -0.93112895E+00
 -0.76069451E+00 -0.55703467E+00 -0.32739687E+00 -0.41291081E-01  0.00000000E+00
 Non local Part
           2           2   1.24671907334008     
   33.6419057414062        33.1087892455839        33.1087892455839     
   32.5838027543151     
 Reciprocal Space Part
  0.00000000E+00 -0.21276411E+00 -0.84476023E+00 -0.18772563E+01 -0.32795503E+01
 -0.50097339E+01 -0.70157344E+01 -0.92366107E+01 -0.11604069E+02 -0.14044161E+02
 -0.16479129E+02 -0.18829338E+02 -0.21015262E+02 -0.22959474E+02 -0.24588574E+02
 -0.25835039E+02 -0.26638913E+02 -0.26949335E+02 -0.26725833E+02 -0.25939383E+02
 -0.24573183E+02 -0.22623148E+02 -0.20098095E+02 -0.17019633E+02 -0.13421745E+02
 -0.93500904E+01 -0.48610356E+01 -0.20438708E-01  0.50977741E+01  0.10413213E+02
  0.15840764E+02  0.21292427E+02  0.26679201E+02  0.31912981E+02  0.36908410E+02
  0.41584655E+02  0.45867063E+02  0.49688652E+02  0.52991417E+02  0.55727421E+02
  0.57859635E+02  0.59362538E+02  0.60222445E+02  0.60437565E+02  0.60017810E+02
  0.58984338E+02  0.57368868E+02  0.55212780E+02  0.52566023E+02  0.49485864E+02
  0.46035521E+02  0.42282688E+02  0.38298024E+02  0.34153612E+02  0.29921442E+02
  0.25671948E+02  0.21472628E+02  0.17386781E+02  0.13472383E+02  0.97811254E+01
  0.63576347E+01  0.32388762E+01  0.45375973E+00 -0.19770578E+01 -0.40411750E+01
 -0.57342613E+01 -0.70596968E+01 -0.80280545E+01 -0.86564425E+01 -0.89677293E+01
 -0.89896767E+01 -0.87540044E+01 -0.82954139E+01 -0.76505968E+01 -0.68572529E+01
 -0.59531416E+01 -0.49751890E+01 -0.39586702E+01 -0.29364824E+01 -0.19385230E+01
 -0.99118272E+00 -0.11695996E+00  0.66580072E+00  0.13430460E+01  0.19050310E+01
  0.23462232E+01  0.26651016E+01  0.28638644E+01  0.29480567E+01  0.29261349E+01
  0.28089827E+01  0.26093955E+01  0.23415489E+01  0.20204674E+01  0.16615086E+01
  0.12798759E+01  0.89017091E+00  0.50599817E+00  0.13962724E+00 -0.19827978E+00
 Real Space Part
  0.00000000E+00  0.22010441E+00  0.87911480E+00  0.19731287E+01  0.34956619E+01
  0.54376787E+01  0.77876337E+01  0.10531525E+02  0.13652961E+02  0.17133234E+02
  0.20951412E+02  0.25084434E+02  0.29507221E+02  0.34192796E+02  0.39112412E+02
  0.44235696E+02  0.49530789E+02  0.54964512E+02  0.60502525E+02  0.66109505E+02
  0.71749322E+02  0.77385230E+02  0.82980059E+02  0.88496411E+02  0.93896868E+02
  0.99144196E+02  0.10420156E+03  0.10903273E+03  0.11360231E+03  0.11787594E+03
  0.12182053E+03  0.12540446E+03  0.12859780E+03  0.13137252E+03  0.13370272E+03
  0.13556481E+03  0.13693770E+03  0.13780302E+03  0.13814527E+03  0.13795204E+03
  0.13721409E+03  0.13592560E+03  0.13408420E+03  0.13169115E+03  0.12875143E+03
  0.12527379E+03  0.12127083E+03  0.11675902E+03  0.11175870E+03  0.10629409E+03
  0.10039316E+03  0.94087639E+02  0.87412827E+02  0.80407471E+02  0.73113567E+02
  0.65576129E+02  0.57842929E+02  0.49964183E+02  0.41992211E+02  0.33981056E+02
  0.25986057E+02  0.18063401E+02  0.10269630E+02  0.26611260E+01 -0.47064341E+01
 -0.11778643E+02 -0.18502943E+02 -0.24829218E+02 -0.30710382E+02 -0.36102973E+02
 -0.40967726E+02 -0.45270132E+02 -0.48980962E+02 -0.52076761E+02 -0.54540288E+02
 -0.56360923E+02 -0.57534982E+02 -0.58065989E+02 -0.57964884E+02 -0.57250115E+02
 -0.55947694E+02 -0.54091150E+02 -0.51721378E+02 -0.48886476E+02 -0.45641385E+02
 -0.42047601E+02 -0.38172652E+02 -0.34089670E+02 -0.29876755E+02 -0.25616411E+02
 -0.21394850E+02 -0.17301296E+02 -0.13427289E+02 -0.98658958E+01 -0.67109697E+01
 -0.40565298E+01 -0.19958562E+01 -0.61705380E+00 -0.31272735E-01  0.00000000E+00
 Reciprocal Space Part
  0.00000000E+00  0.21375027E+00  0.84887377E+00  0.18871393E+01  0.32986598E+01
  0.50426280E+01  0.70683187E+01  0.93163369E+01  0.11720077E+02  0.14207361E+02
  0.16702213E+02  0.19126724E+02  0.21402973E+02  0.23454938E+02  0.25210372E+02
  0.26602583E+02  0.27572081E+02  0.28068054E+02  0.28049638E+02  0.27486944E+02
  0.26361831E+02  0.24668398E+02  0.22413189E+02  0.19615103E+02  0.16305026E+02
  0.12525174E+02  0.83281912E+01  0.37759993E+01 -0.10615473E+01 -0.61081856E+01
 -0.11282901E+02 -0.16501677E+02 -0.21679299E+02 -0.26731170E+02 -0.31575084E+02
 -0.36132937E+02 -0.40332317E+02 -0.44107949E+02 -0.47402961E+02 -0.50169945E+02
 -0.52371789E+02 -0.53982268E+02 -0.54986389E+02 -0.55380475E+02 -0.55172006E+02
 -0.54379215E+02 -0.53030461E+02 -0.51163391E+02 -0.48823929E+02 -0.46065099E+02
 -0.42945743E+02 -0.39529130E+02 -0.35881527E+02 -0.32070742E+02 -0.28164683E+02
 -0.24229965E+02 -0.20330596E+02 -0.16526769E+02 -0.12873786E+02 -0.94211285E+01
 -0.62117043E+01 -0.32812643E+01 -0.65801073E+00  0.16376088E+01  0.35929229E+01
  0.52028794E+01  0.64697228E+01  0.74025205E+01  0.80165552E+01  0.83326057E+01
  0.83761380E+01  0.81764300E+01  0.77656561E+01  0.71779541E+01  0.64485006E+01
  0.56126149E+01  0.47049146E+01  0.37585398E+01  0.28044621E+01  0.18708915E+01
  0.98279082E+00  0.16150356E+00 -0.57550108E+00 -0.12147667E+01 -0.17468748E+01
 -0.21663623E+01 -0.24715411E+01 -0.26642291E+01 -0.27494068E+01 -0.27348119E+01
 -0.26304887E+01 -0.24483055E+01 -0.22014571E+01 -0.19039662E+01 -0.15701982E+01
 -0.12144017E+01 -0.85028697E+00 -0.49065137E+00 -0.14705920E+00  0.17041763E+00
 Real Space Part
  0.00000000E+00 -0.20236282E+00 -0.80824078E+00 -0.18140080E+01 -0.32136402E+01
 -0.49987426E+01 -0.71585896E+01 -0.96801745E+01 -0.12548271E+02 -0.15745505E+02
 -0.19252437E+02 -0.23047653E+02 -0.27107871E+02 -0.31408048E+02 -0.35921506E+02
 -0.40620058E+02 -0.45474153E+02 -0.50453016E+02 -0.55524807E+02 -0.60656785E+02
 -0.65815471E+02 -0.70966828E+02 -0.76076440E+02 -0.81109697E+02 -0.86031985E+02
 -0.90808882E+02 -0.95406354E+02 -0.99790955E+02 -0.10393003E+03 -0.10779190E+03
 -0.11134611E+03 -0.11456357E+03 -0.11741679E+03 -0.11988010E+03 -0.12192978E+03
 -0.12354430E+03 -0.12470450E+03 -0.12539373E+03 -0.12559805E+03 -0.12530640E+03
 -0.12451071E+03 -0.12320604E+03 -0.12139074E+03 -0.11906651E+03 -0.11623851E+03
 -0.11291542E+03 -0.10910949E+03 -0.10483659E+03 -0.10011614E+03 -0.94971159E+02
 -0.89428185E+02 -0.83517175E+02 -0.77271401E+02 -0.70727308E+02 -0.63924320E+02
 -0.56904630E+02 -0.49712945E+02 -0.42396192E+02 -0.35003199E+02 -0.27584330E+02
 -0.20191095E+02 -0.12875716E+02 -0.56906747E+01  0.13117719E+01  0.80801009E+01
  0.14564049E+02  0.20715151E+02  0.26487291E+02  0.31837251E+02  0.36725254E+02
  0.41115497E+02  0.44976666E+02  0.48282421E+02  0.51011838E+02  0.53149825E+02
  0.54687478E+02  0.55622375E+02  0.55958812E+02  0.55707993E+02  0.54888096E+02
  0.53524319E+02  0.51648829E+02  0.49300601E+02  0.46525261E+02  0.43374746E+02
  0.39907014E+02  0.36185561E+02  0.32279010E+02  0.28260511E+02  0.24207213E+02
  0.20199613E+02  0.16320905E+02  0.12656327E+02  0.92924336E+01  0.63164024E+01
  0.38154613E+01  0.18760499E+01  0.57966266E+00  0.29367949E-01  0.00000000E+00
 Non local Part
           0           2   1.24671907334008     
   3.44317455762501        7.62533731716059        7.62533731716059     
   16.9608376866082     
 Reciprocal Space Part
 -0.20567026E+02 -0.20857884E+02 -0.21724772E+02 -0.23150742E+02 -0.25107927E+02
 -0.27558095E+02 -0.30453416E+02 -0.33737413E+02 -0.37346084E+02 -0.41209171E+02
 -0.45251543E+02 -0.49394669E+02 -0.53558150E+02 -0.57661272E+02 -0.61624554E+02
 -0.65371257E+02 -0.68828817E+02 -0.71930186E+02 -0.74615041E+02 -0.76830843E+02
 -0.78533731E+02 -0.79689228E+02 -0.80272743E+02 -0.80269882E+02 -0.79676537E+02
 -0.78498780E+02 -0.76752550E+02 -0.74463156E+02 -0.71664606E+02 -0.68398771E+02
 -0.64714424E+02 -0.60666161E+02 -0.56313235E+02 -0.51718329E+02 -0.46946302E+02
 -0.42062918E+02 -0.37133607E+02 -0.32222269E+02 -0.27390142E+02 -0.22694773E+02
 -0.18189091E+02 -0.13920609E+02 -0.99307705E+01 -0.62544330E+01 -0.29195166E+01
  0.53198400E-01  0.26501188E+01  0.48647368E+01  0.66973878E+01  0.81548801E+01
  0.92500077E+01  0.10000964E+02  0.10430673E+02  0.10566057E+02  0.10437258E+02
  0.10076832E+02  0.95189468E+01  0.87985771E+01  0.79507408E+01  0.70097755E+01
  0.60086746E+01  0.49784958E+01  0.39478488E+01  0.29424721E+01  0.19849018E+01
  0.10942360E+01  0.28599360E+00 -0.42793419E+00 -0.10392446E+01 -0.15431027E+01
 -0.19379466E+01 -0.22252303E+01 -0.24091114E+01 -0.24960981E+01 -0.24946646E+01
 -0.24148482E+01 -0.22678389E+01 -0.20655726E+01 -0.18203383E+01 -0.15444079E+01
 -0.12496972E+01 -0.94746493E+00 -0.64805449E+00 -0.36068218E+00 -0.93274925E-01
  0.14764251E+00  0.35701100E+00  0.53125333E+00  0.66824635E+00  0.76725302E+00
  0.82881954E+00  0.85464290E+00  0.84741520E+00  0.81065083E+00  0.74850308E+00
  0.66557628E+00  0.56673945E+00  0.45694706E+00  0.34107165E+00  0.22375250E+00
 Real Space Part
 -0.19668346E+03 -0.19663511E+03 -0.19648989E+03 -0.19624732E+03 -0.19590659E+03
 -0.19546656E+03 -0.19492581E+03 -0.19428262E+03 -0.19353498E+03 -0.19268063E+03
 -0.19171708E+03 -0.19064161E+03 -0.18945132E+03 -0.18814314E+03 -0.18671388E+03
 -0.18516026E+03 -0.18347890E+03 -0.18166644E+03 -0.17971952E+03 -0.17763483E+03
 -0.17540917E+03 -0.17303949E+03 -0.17052291E+03 -0.16785682E+03 -0.16503889E+03
 -0.16206713E+03 -0.15893995E+03 -0.15565618E+03 -0.15221518E+03 -0.14861684E+03
 -0.14486163E+03 -0.14095070E+03 -0.13688588E+03 -0.13266973E+03 -0.12830563E+03
 -0.12379776E+03 -0.11915118E+03 -0.11437186E+03 -0.10946668E+03 -0.10444351E+03
 -0.99311157E+02 -0.94079456E+02 -0.88759216E+02 -0.83362244E+02 -0.77901329E+02
 -0.72390219E+02 -0.66843595E+02 -0.61277027E+02 -0.55706923E+02 -0.50150465E+02
 -0.44625530E+02 -0.39150606E+02 -0.33744687E+02 -0.28427160E+02 -0.23217679E+02
 -0.18136024E+02 -0.13201952E+02 -0.84350370E+01 -0.38544946E+01  0.52099319E+00
  0.46734667E+01  0.85858791E+01  0.12242290E+02  0.15628061E+02  0.18730044E+02
  0.21536771E+02  0.24038632E+02  0.26228039E+02  0.28099579E+02  0.29650148E+02
  0.30879064E+02  0.31788158E+02  0.32381834E+02  0.32667102E+02  0.32653585E+02
  0.32353490E+02  0.31781544E+02  0.30954900E+02  0.29893016E+02  0.28617486E+02
  0.27151862E+02  0.25521437E+02  0.23752996E+02  0.21874574E+02  0.19915155E+02
  0.17904405E+02  0.15872356E+02  0.13849114E+02  0.11864555E+02  0.99480284E+01
  0.81280736E+01  0.64321486E+01  0.48863758E+01  0.35153118E+01  0.23417299E+01
  0.13864773E+01  0.66828612E+00  0.20257336E+00  0.93095312E-02  0.00000000E+00
 Reciprocal Space Part
  0.18740460E+02  0.18839551E+02  0.19134683E+02  0.19619482E+02  0.20283468E+02
  0.21112275E+02  0.22087943E+02  0.23189289E+02  0.24392340E+02  0.25670821E+02
  0.26996694E+02  0.28340722E+02  0.29673058E+02  0.30963848E+02  0.32183819E+02
  0.33304860E+02  0.34300570E+02  0.35146765E+02  0.35821941E+02  0.36307666E+02
  0.36588919E+02  0.36654346E+02  0.36496439E+02  0.36111644E+02  0.35500373E+02
  0.34666948E+02  0.33619465E+02  0.32369578E+02  0.30932225E+02  0.29325287E+02
  0.27569199E+02  0.25686517E+02  0.23701452E+02  0.21639385E+02  0.19526368E+02
  0.17388628E+02  0.15252076E+02  0.13141844E+02  0.11081847E+02  0.90943790E+01
  0.71997677E+01  0.54160655E+01  0.37588065E+01  0.22408196E+01  0.87210356E+00
 -0.34023542E+00 -0.13919857E+01 -0.22817732E+01 -0.30109488E+01 -0.35834255E+01
 -0.40054707E+01 -0.42854596E+01 -0.44335968E+01 -0.44616147E+01 -0.43824550E+01
 -0.42099415E+01 -0.39584529E+01 -0.36426009E+01 -0.32769230E+01 -0.28755934E+01
 -0.24521604E+01 -0.20193121E+01 -0.15886770E+01 -0.11706595E+01 -0.77431387E+00
 -0.40725717E+00 -0.75619897E-01  0.21596549E+00  0.46434096E+00  0.66776665E+00
  0.82583545E+00  0.93936229E+00  0.10102524E+01  0.10413534E+01  0.10362955E+01
  0.99932508E+00  0.93513591E+00  0.84870269E+00  0.74512077E+00  0.62945592E+00
  0.50660733E+00  0.38118626E+00  0.25741277E+00  0.13903161E+00  0.29248322E-01
 -0.69314184E-01 -0.15463909E+00 -0.22531986E+00 -0.28054651E+00 -0.32007579E+00
 -0.34418722E+00 -0.35362741E+00 -0.34954507E+00 -0.33341942E+00 -0.30698442E+00
 -0.27215160E+00 -0.23093371E+00 -0.18537148E+00 -0.13746554E+00 -0.89114992E-01
 Real Space Part
  0.86578926E+02  0.86558797E+02  0.86498337E+02  0.86397334E+02  0.86255433E+02
  0.86072142E+02  0.85846836E+02  0.85578762E+02  0.85267046E+02  0.84910698E+02
  0.84508624E+02  0.84059635E+02  0.83562457E+02  0.83015743E+02  0.82418087E+02
  0.81768038E+02  0.81064115E+02  0.80304820E+02  0.79488661E+02  0.78614165E+02
  0.77679897E+02  0.76684481E+02  0.75626618E+02  0.74505109E+02  0.73318874E+02
  0.72066973E+02  0.70748629E+02  0.69363251E+02  0.67910453E+02  0.66390078E+02
  0.64802221E+02  0.63147246E+02  0.61425813E+02  0.59638893E+02  0.57787789E+02
  0.55874156E+02  0.53900014E+02  0.51867768E+02  0.49780216E+02  0.47640564E+02
  0.45452435E+02  0.43219870E+02  0.40947340E+02  0.38639735E+02  0.36302371E+02
  0.33940972E+02  0.31561667E+02  0.29170967E+02  0.26775749E+02  0.24383224E+02
  0.22000912E+02  0.19636601E+02  0.17298307E+02  0.14994228E+02  0.12732688E+02
  0.10522080E+02  0.83708061E+01  0.62872069E+01  0.42794909E+01  0.23556589E+01
  0.52342601E+00 -0.12098596E+01 -0.28372979E+01 -0.43525197E+01 -0.57497675E+01
 -0.70239753E+01 -0.81708439E+01 -0.91869129E+01 -0.10069626E+02 -0.10817387E+02
 -0.11429613E+02 -0.11906771E+02 -0.12250408E+02 -0.12463165E+02 -0.12548784E+02
 -0.12512096E+02 -0.12359000E+02 -0.12096421E+02 -0.11732269E+02 -0.11275361E+02
 -0.10735355E+02 -0.10122659E+02 -0.94483262E+01 -0.87239581E+01 -0.79615775E+01
 -0.71735175E+01 -0.63722890E+01 -0.55704607E+01 -0.47805283E+01 -0.40147930E+01
 -0.32852406E+01 -0.26034268E+01 -0.19803697E+01 -0.14264524E+01 -0.95133037E+00
 -0.56386916E+00 -0.27206417E+00 -0.82549091E-01 -0.37902310E-02  0.00000000E+00
 PAW radial sets
         357   1.00246806412810     
(5E20.12)                                
 augmentation charges (non sperical)
  0.592213368990E+00 -0.314567864743E+00  0.516192524135E+00  0.513084868540E+00 -0.199869042015E+00
 -0.432342325861E+00 -0.314567864743E+00  0.109041882429E+00 -0.212833962342E+00 -0.213384507869E+00
  0.322661742376E-01  0.617350654446E-01  0.516192524135E+00 -0.212833962342E+00  0.517476315792E+00
  0.516549352186E+00 -0.118630852559E+00 -0.244885663410E+00  0.513084868540E+00 -0.213384507869E+00
  0.516549352186E+00  0.515549455085E+00 -0.120640079893E+00 -0.249383376670E+00 -0.199869042015E+00
  0.322661742376E-01 -0.118630852559E+00 -0.120640079893E+00 -0.141115843024E-01 -0.415637903617E-01
 -0.432342325861E+00  0.617350654446E-01 -0.244885663410E+00 -0.249383376670E+00 -0.415637903617E-01
 -0.115627860999E+00
 uccopancies in atom
  0.200000000016E+01  0.000000000000E+00  0.000000000000E+00  0.000000000000E+00  0.000000000000E+00
  0.000000000000E+00  0.000000000000E+00  0.000000000000E+00  0.000000000000E+00  0.000000000000E+00
  0.000000000000E+00  0.000000000000E+00  0.000000000000E+00  0.000000000000E+00  0.999999998362E+00
  0.000000000000E+00  0.000000000000E+00  0.000000000000E+00  0.000000000000E+00  0.000000000000E+00
  0.000000000000E+00  0.000000000000E+00  0.000000000000E+00  0.000000000000E+00  0.000000000000E+00
  0.000000000000E+00  0.000000000000E+00  0.000000000000E+00  0.100000000130E+01  0.000000000000E+00
  0.000000000000E+00  0.000000000000E+00  0.000000000000E+00  0.000000000000E+00  0.000000000000E+00
  0.000000000000E+00
 grid
  0.433790055694E-04  0.447895826131E-04  0.462460281033E-04  0.477498335675E-04  0.493025390339E-04
  0.509057346085E-04  0.525610621037E-04  0.542702167195E-04  0.560349487796E-04  0.578570655238E-04
  0.597384329589E-04  0.616809777695E-04  0.636866892914E-04  0.657576215483E-04  0.678958953558E-04
  0.701037004933E-04  0.723832979460E-04  0.747370222209E-04  0.771672837375E-04  0.796765712958E-04
  0.822674546256E-04  0.849425870178E-04  0.877047080418E-04  0.905566463508E-04  0.935013225790E-04
  0.965417523320E-04  0.996810492756E-04  0.102922428324E-03  0.106269208933E-03  0.109724818499E-03
  0.113292795866E-03  0.116976794957E-03  0.120780588507E-03  0.124708071935E-03  0.128763267326E-03
  0.132950327554E-03  0.137273540536E-03  0.141737333618E-03  0.146346278116E-03  0.151105093991E-03
  0.156018654687E-03  0.161091992118E-03  0.166330301826E-03  0.171738948298E-03  0.177323470461E-03
  0.183089587352E-03  0.189043203980E-03  0.195190417368E-03  0.201537522801E-03  0.208091020268E-03
  0.214857621123E-03  0.221844254958E-03  0.229058076695E-03  0.236506473919E-03  0.244197074440E-03
  0.252137754103E-03  0.260336644860E-03  0.268802143090E-03  0.277542918204E-03  0.286567921520E-03
  0.295886395428E-03  0.305507882861E-03  0.315442237063E-03  0.325699631680E-03  0.336290571181E-03
  0.347225901613E-03  0.358516821711E-03  0.370174894363E-03  0.382212058454E-03  0.394640641093E-03
  0.407473370233E-03  0.420723387711E-03  0.434404262703E-03  0.448530005620E-03  0.463115082457E-03
  0.478174429608E-03  0.493723469160E-03  0.509778124687E-03  0.526354837561E-03  0.543470583784E-03
  0.561142891375E-03  0.579389858323E-03  0.598230171114E-03  0.617683123877E-03  0.637768638135E-03
  0.658507283209E-03  0.679920297284E-03  0.702029609158E-03  0.724857860698E-03  0.748428430029E-03
  0.772765455473E-03  0.797893860271E-03  0.823839378105E-03  0.850628579453E-03  0.878288898798E-03
  0.906848662724E-03  0.936337118925E-03  0.966784466157E-03  0.998221885165E-03  0.103068157061E-02
  0.106419676405E-02  0.109880178797E-02  0.113453208094E-02  0.117142423390E-02  0.120951602764E-02
  0.124884647149E-02  0.128945584325E-02  0.133138573047E-02  0.137467907303E-02  0.141938020708E-02
  0.146553491049E-02  0.151319044972E-02  0.156239562819E-02  0.161320083632E-02  0.166565810308E-02
  0.171982114928E-02  0.177574544263E-02  0.183348825448E-02  0.189310871852E-02  0.195466789132E-02
  0.201822881484E-02  0.208385658104E-02  0.215161839846E-02  0.222158366115E-02  0.229382401964E-02
  0.236841345437E-02  0.244542835143E-02  0.252494758082E-02  0.260705257718E-02  0.269182742319E-02
  0.277935893570E-02  0.286973675464E-02  0.296305343478E-02  0.305940454057E-02  0.315888874394E-02
  0.326160792543E-02  0.336766727845E-02  0.347717541705E-02  0.359024448712E-02  0.370699028127E-02
  0.382753235741E-02  0.395199416115E-02  0.408050315225E-02  0.421319093515E-02  0.435019339373E-02
  0.449165083049E-02  0.463770811020E-02  0.478851480828E-02  0.494422536396E-02  0.510499923846E-02
  0.527100107828E-02  0.544240088381E-02  0.561937418342E-02  0.580210221324E-02  0.599077210274E-02
  0.618557706637E-02  0.638671660145E-02  0.659439669242E-02  0.680883002184E-02  0.703023618820E-02
  0.725884193075E-02  0.749488136174E-02  0.773859620618E-02  0.799023604937E-02  0.825005859249E-02
  0.851832991654E-02  0.879532475480E-02  0.908132677417E-02  0.937662886573E-02  0.968153344461E-02
  0.999635275976E-02  0.103214092137E-01  0.106570356925E-01  0.110035759072E-01  0.113613847451E-01
  0.117308286338E-01  0.121122859162E-01  0.125061472377E-01  0.129128159469E-01  0.133327085079E-01
  0.137662549276E-01  0.142138991952E-01  0.146760997377E-01  0.151533298888E-01  0.156460783738E-01
  0.161548498103E-01  0.166801652247E-01  0.172225625859E-01  0.177825973562E-01  0.183608430601E-01
  0.189578918717E-01  0.195743552212E-01  0.202108644209E-01  0.208680713120E-01  0.215466489316E-01
  0.222472922025E-01  0.229707186447E-01  0.237176691101E-01  0.244889085412E-01  0.252852267546E-01
  0.261074392498E-01  0.269563880441E-01  0.278329425353E-01  0.287380003918E-01  0.296724884720E-01
  0.306373637733E-01  0.316336144124E-01  0.326622606369E-01  0.337243558704E-01  0.348209877913E-01
  0.359532794466E-01  0.371223904017E-01  0.383295179285E-01  0.395758982311E-01  0.408628077118E-01
  0.421915642783E-01  0.435635286936E-01  0.449801059690E-01  0.464427468035E-01  0.479529490690E-01
  0.495122593448E-01  0.511222745007E-01  0.527846433330E-01  0.545010682526E-01  0.562733070286E-01
  0.581031745885E-01  0.599925448764E-01  0.619433527727E-01  0.639575960751E-01  0.660373375447E-01
  0.681847070187E-01  0.704019035909E-01  0.726911978644E-01  0.750549342766E-01  0.774955335001E-01
  0.800154949218E-01  0.826173992024E-01  0.853039109193E-01  0.880777812952E-01  0.909418510157E-01
  0.938990531386E-01  0.969524160971E-01  0.100105066802E+00  0.103360233843E+00  0.106721250795E+00
  0.110191559634E+00  0.113774714259E+00  0.117474384133E+00  0.121294358043E+00  0.125238547974E+00
  0.129310993122E+00  0.133515864027E+00  0.137857466844E+00  0.142340247753E+00  0.146968797515E+00
  0.151747856167E+00  0.156682317885E+00  0.161777235988E+00  0.167037828118E+00  0.172469481580E+00
  0.178077758862E+00  0.183868403331E+00  0.189847345111E+00  0.196020707163E+00  0.202394811548E+00
  0.208976185907E+00  0.215771570140E+00  0.222787923317E+00  0.230032430796E+00  0.237512511584E+00
  0.245235825940E+00  0.253210283211E+00  0.261444049938E+00  0.269945558219E+00  0.278723514341E+00
  0.287786907697E+00  0.297145019995E+00  0.306807434759E+00  0.316784047146E+00  0.327085074080E+00
  0.337721064711E+00  0.348702911225E+00  0.360041859991E+00  0.371749523083E+00  0.383837890172E+00
  0.396319340802E+00  0.409206657069E+00  0.422513036711E+00  0.436252106624E+00  0.450437936815E+00
  0.465085054815E+00  0.480208460553E+00  0.495823641716E+00  0.511946589616E+00  0.528593815560E+00
  0.545782367762E+00  0.563529848801E+00  0.581854433649E+00  0.600774888282E+00  0.620310588899E+00
  0.640481541764E+00  0.661308403696E+00  0.682812503221E+00  0.705015862417E+00  0.727941219464E+00
  0.751612051929E+00  0.776052600815E+00  0.801287895380E+00  0.827343778768E+00  0.854246934484E+00
  0.882024913708E+00  0.910706163518E+00  0.940320056022E+00  0.970896918432E+00  0.100246806413E+01
  0.103506582472E+01  0.106872358317E+01  0.110347580795E+01  0.113935808839E+01  0.117640717108E+01
  0.121466099750E+01  0.125415874293E+01  0.129494085651E+01  0.133704910268E+01  0.138052660397E+01
  0.142541788514E+01  0.147176891878E+01  0.151962717241E+01  0.156904165705E+01  0.162006297745E+01
  0.167274338392E+01  0.172713682578E+01  0.178329900667E+01  0.184128744158E+01  0.190116151573E+01
  0.196298254541E+01  0.202681384074E+01  0.209272077056E+01  0.216077082932E+01  0.223103370622E+01
  0.230358135660E+01  0.237848807559E+01  0.245583057420E+01  0.253568805793E+01  0.261814230780E+01
  0.270327776419E+01  0.279118161322E+01  0.288194387614E+01  0.297565750142E+01  0.307241846001E+01
  0.317232584358E+01  0.327548196603E+01  0.338199246824E+01  0.349196642627E+01  0.360551646306E+01
  0.372275886377E+01  0.384381369488E+01
 aepotential
  0.156555023059E+05  0.157516734957E+05  0.158204946751E+05  0.158613913624E+05  0.158739672589E+05
  0.158581042364E+05  0.158138249072E+05  0.157414442753E+05  0.156413960547E+05  0.155144258856E+05
  0.153613560818E+05  0.151832940745E+05  0.149814643613E+05  0.147572605054E+05  0.145122040468E+05
  0.142479227558E+05  0.139661386453E+05  0.136686448016E+05  0.133572642658E+05  0.130338649437E+05
  0.127002905032E+05  0.123583838358E+05  0.120099386084E+05  0.116566945549E+05  0.113003253348E+05
  0.109424154414E+05  0.105844587310E+05  0.102278455236E+05  0.987385358191E+04  0.952365294719E+04
  0.917829432509E+04  0.883871346124E+04  0.850573195811E+04  0.818005896036E+04  0.786229585963E+04
  0.755294108685E+04  0.725239582158E+04  0.696097046434E+04  0.667889147138E+04  0.640630846448E+04
  0.614330143328E+04  0.588988791842E+04  0.564603006162E+04  0.541164141326E+04  0.518659342718E+04
  0.497072162086E+04  0.476383122961E+04  0.456570262306E+04  0.437609593223E+04  0.419475567875E+04
  0.402141458565E+04  0.385579696881E+04  0.369762203788E+04  0.354660635444E+04  0.340246654149E+04
  0.326492068733E+04  0.313369041789E+04  0.300850239344E+04  0.288908900765E+04  0.277518960213E+04
  0.266655133436E+04  0.256292905136E+04  0.246408669079E+04  0.236979638083E+04  0.227983963771E+04
  0.219400680859E+04  0.211209698825E+04  0.203391834913E+04  0.195928760050E+04  0.188803009459E+04
  0.181997925689E+04  0.175497666237E+04  0.169287167461E+04  0.163352089803E+04  0.157678835654E+04
  0.152254468901E+04  0.147066742994E+04  0.142103983975E+04  0.137355185419E+04  0.132809854807E+04
  0.128458049382E+04  0.124290374748E+04  0.120297873759E+04  0.116472103233E+04  0.112805011282E+04
  0.109288979344E+04  0.105916804632E+04  0.102681611367E+04  0.995769237884E+03  0.965965494133E+03
  0.937346538059E+03  0.909856733878E+03  0.883443314180E+03  0.858056231569E+03  0.833647821689E+03
  0.810172971296E+03  0.787588609848E+03  0.765853949080E+03  0.744930064501E+03  0.724780054784E+03
  0.705368701772E+03  0.686662539233E+03  0.668629667502E+03  0.651239707101E+03  0.634463710375E+03
  0.618274086927E+03  0.602644515249E+03  0.587549885212E+03  0.572966231664E+03  0.558870675357E+03
  0.545241365775E+03  0.532057411975E+03  0.519298852263E+03  0.506946594658E+03  0.494982365267E+03
  0.483388677932E+03  0.472148793614E+03  0.461246643007E+03  0.450666869839E+03  0.440394702592E+03
  0.430416006027E+03  0.420717173529E+03  0.411285181812E+03  0.402107456255E+03  0.393171980060E+03
  0.384467125274E+03  0.375981754904E+03  0.367705102419E+03  0.359626832940E+03  0.351736954993E+03
  0.344025848388E+03  0.336484222360E+03  0.329103109053E+03  0.321873847579E+03  0.314788063304E+03
  0.307837658976E+03  0.301014800670E+03  0.294311901503E+03  0.287721619324E+03  0.281236832969E+03
  0.274850641141E+03  0.268556350613E+03  0.262347465172E+03  0.256217676936E+03  0.250160864069E+03
  0.244171074412E+03  0.238242524604E+03  0.232369593583E+03  0.226546814405E+03  0.220768869601E+03
  0.215030587048E+03  0.209326934791E+03  0.203653017910E+03  0.198004073531E+03  0.192375469363E+03
  0.186762700313E+03  0.181161386019E+03  0.175567270060E+03  0.169976218124E+03  0.164384215803E+03
  0.158787373476E+03  0.153181915796E+03  0.147564196800E+03  0.141930685560E+03  0.136277981329E+03
  0.130602804986E+03  0.124902007474E+03  0.119172571071E+03  0.113411612413E+03  0.107616386522E+03
  0.101784293086E+03  0.959128791679E+02  0.899998480806E+02  0.840430624248E+02  0.780405553097E+02
  0.719905346242E+02  0.658913960892E+02  0.597417290790E+02  0.535403309732E+02  0.472862171489E+02
  0.409786353901E+02  0.346170795550E+02  0.282013066887E+02  0.217313539641E+02  0.152075584180E+02
  0.863057841036E+01  0.200141703702E+01 -0.467855226919E+01 -0.114075577777E+02 -0.181833989409E+02
 -0.250034136179E+02 -0.318644433978E+02 -0.387627959279E+02 -0.456942071201E+02 -0.526538017175E+02
 -0.596360548297E+02 -0.666347557746E+02 -0.736429768879E+02 -0.806530501301E+02 -0.876565556387E+02
 -0.946443280760E+02 -0.101606485730E+03 -0.108532490616E+03 -0.115411246092E+03 -0.122231240263E+03
 -0.128980740217E+03 -0.135648040412E+03 -0.142221760748E+03 -0.148691180829E+03 -0.155046580258E+03
 -0.161279534829E+03 -0.167383089365E+03 -0.173351698762E+03 -0.179180799616E+03 -0.184865863274E+03
 -0.190400806270E+03 -0.195775723712E+03 -0.200974094408E+03 -0.205969892798E+03 -0.210725337464E+03
 -0.215190352468E+03 -0.219304698305E+03 -0.223003403192E+03 -0.226225198201E+03 -0.228922618435E+03
 -0.231071642987E+03 -0.232678610336E+03 -0.233782679735E+03 -0.234453013929E+03 -0.234780876474E+03
 -0.234867998678E+03 -0.234813817136E+03 -0.234704849640E+03 -0.234608786449E+03 -0.234573844581E+03
 -0.234631909774E+03 -0.234803090986E+03 -0.235099812008E+03 -0.235529612827E+03 -0.236096729590E+03
 -0.236802892694E+03 -0.237647786393E+03 -0.238629417575E+03 -0.239744488698E+03 -0.240988758261E+03
 -0.242357351205E+03 -0.243844978693E+03 -0.245446059575E+03 -0.247154734947E+03 -0.248964794414E+03
 -0.250869517828E+03 -0.252861450291E+03 -0.254932115265E+03 -0.257071679128E+03 -0.259268585250E+03
 -0.261509184419E+03 -0.263777420062E+03 -0.266054649538E+03 -0.268319733147E+03 -0.270549555232E+03
 -0.272720171751E+03 -0.274808745074E+03 -0.276796299615E+03 -0.278671018166E+03 -0.280431181310E+03
 -0.282085842697E+03 -0.283649856617E+03 -0.285129160898E+03 -0.286494280177E+03 -0.287649047287E+03
 -0.288417115705E+03 -0.288576940008E+03 -0.287957800243E+03 -0.286558695613E+03 -0.284594607288E+03
 -0.282389576532E+03 -0.280188736417E+03 -0.278069047075E+03 -0.275991857054E+03 -0.273889751374E+03
 -0.271712683642E+03 -0.269436025243E+03 -0.267053356414E+03 -0.264567171120E+03 -0.261982005163E+03
 -0.259300814483E+03 -0.256523990558E+03 -0.253649936742E+03 -0.250676202562E+03 -0.247600575573E+03
 -0.244421844136E+03 -0.241140223946E+03 -0.237757499423E+03 -0.234276980472E+03 -0.230703346208E+03
 -0.227042428716E+03 -0.223300980600E+03 -0.219486424705E+03 -0.215606631054E+03 -0.211669716470E+03
 -0.207683831574E+03 -0.203657041991E+03 -0.199597198489E+03 -0.195511868217E+03 -0.191408303433E+03
 -0.187293450650E+03 -0.183173984635E+03 -0.179056369952E+03 -0.174946906505E+03 -0.170851767622E+03
 -0.166776992581E+03 -0.162728433311E+03 -0.158711653600E+03 -0.154731797041E+03 -0.150793454857E+03
 -0.146900576176E+03 -0.143056464767E+03 -0.139263891418E+03 -0.135525316358E+03 -0.131843169127E+03
 -0.128220101339E+03 -0.124659117877E+03 -0.121163537829E+03 -0.117736808026E+03 -0.114382224449E+03
 -0.111102675786E+03 -0.107900464195E+03 -0.104777219628E+03 -0.101733922173E+03 -0.987709674963E+02
 -0.958882547961E+02 -0.930852705362E+02 -0.903611451143E+02 -0.877146838746E+02 -0.851443759005E+02
 -0.826483876738E+02 -0.802245648139E+02 -0.778704488382E+02 -0.755833289323E+02 -0.733603288855E+02
 -0.711985262328E+02 -0.690950882372E+02 -0.670474054409E+02 -0.650532038511E+02 -0.631106218216E+02
 -0.612182463960E+02 -0.593751067028E+02 -0.575806329726E+02 -0.558345849431E+02 -0.541369584638E+02
 -0.524878767620E+02 -0.508874739593E+02 -0.493357796346E+02 -0.478326150164E+02 -0.463775123152E+02
 -0.449696674309E+02 -0.436079321210E+02
 core charge-density
  0.511568198191E-03  0.544768200138E-03  0.580120390544E-03  0.617764038273E-03  0.657847400049E-03
  0.700528298098E-03  0.745974734720E-03  0.794365546054E-03  0.845891097594E-03  0.900754023975E-03
  0.959170015985E-03  0.102136865756E-02  0.108759431616E-02  0.115810708959E-02  0.123318381314E-02
  0.131311913051E-02  0.139822663270E-02  0.148884006906E-02  0.158531463506E-02  0.168802834138E-02
  0.179738346966E-02  0.191380812006E-02  0.203775785644E-02  0.216971745517E-02  0.231020276400E-02
  0.245976267779E-02  0.261898123821E-02  0.278847986522E-02  0.296891972827E-02  0.316100426569E-02
  0.336548186171E-02  0.358314869021E-02  0.381485173575E-02  0.406149200251E-02  0.432402792239E-02
  0.460347897454E-02  0.490092952886E-02  0.521753292704E-02  0.555451581528E-02  0.591318274381E-02
  0.629492104904E-02  0.670120603509E-02  0.713360647251E-02  0.759379043270E-02  0.808353147794E-02
  0.860471522768E-02  0.915934632303E-02  0.974955581269E-02  0.103776089844E-01  0.110459136676E-01
  0.117570290347E-01  0.125136749285E-01  0.133187417460E-01  0.141753009104E-01  0.150866159635E-01
  0.160561543128E-01  0.170875996708E-01  0.181848652229E-01  0.193521075651E-01  0.205937414524E-01
  0.219144554004E-01  0.233192281887E-01  0.248133463102E-01  0.264024224176E-01  0.280924148192E-01
  0.298896480765E-01  0.318008347608E-01  0.338330984254E-01  0.359939978562E-01  0.382915526601E-01
  0.407342702585E-01  0.433311743512E-01  0.460918349201E-01  0.490263998431E-01  0.521456281920E-01
  0.554609252876E-01  0.589843795898E-01  0.627288014992E-01  0.667077641506E-01  0.709356462771E-01
  0.754276772271E-01  0.801999842153E-01  0.852696418883E-01  0.906547242880E-01  0.963743592907E-01
  0.102448785602E+00  0.108899412387E+00  0.115748881602E+00  0.123021133109E+00  0.130741472631E+00
  0.138936642611E+00  0.147634896030E+00  0.156866073225E+00  0.166661681757E+00  0.177054979332E+00
  0.188081059815E+00  0.199776942312E+00  0.212181663322E+00  0.225336371910E+00  0.239284427850E+00
  0.254071502654E+00  0.269745683382E+00  0.286357579098E+00  0.303960429792E+00  0.322610217568E+00
  0.342365779854E+00  0.363288924328E+00  0.385444545223E+00  0.408900740620E+00  0.433728930260E+00
  0.460003973354E+00  0.487804285805E+00  0.517211956157E+00  0.548312859529E+00  0.581196768673E+00
  0.615957461217E+00  0.652692822042E+00  0.691504939630E+00  0.732500195092E+00  0.775789342454E+00
  0.821487578668E+00  0.869714601624E+00  0.920594654324E+00  0.974256553178E+00  0.103083369828E+01
  0.109046406322E+01  0.115329016197E+01  0.121945899002E+01  0.128912193685E+01  0.136243466662E+01
  0.143955696367E+01  0.152065253937E+01  0.160588879639E+01  0.169543654665E+01  0.178946967858E+01
  0.188816476948E+01  0.199170063844E+01  0.210025783502E+01  0.221401805909E+01  0.233316350670E+01
  0.245787613714E+01  0.258833685603E+01  0.272472460953E+01  0.286721538469E+01  0.301598111105E+01
  0.317118845898E+01  0.333299753043E+01  0.350156043807E+01  0.367701976950E+01  0.385950693362E+01
  0.404914038716E+01  0.424602374013E+01  0.445024374008E+01  0.466186813636E+01  0.488094342666E+01
  0.510749249034E+01  0.534151211405E+01  0.558297041812E+01  0.583180419357E+01  0.608791616298E+01
  0.635117218045E+01  0.662139838945E+01  0.689837836054E+01  0.718185023392E+01  0.747150389647E+01
  0.776697822573E+01  0.806785843837E+01  0.837367358428E+01  0.868389423191E+01  0.899793039510E+01
  0.931512975563E+01  0.963477624002E+01  0.995608901335E+01  0.102782219561E+02  0.106002636941E+02
  0.109212382526E+02  0.112401064103E+02  0.115557678268E+02  0.118670640199E+02  0.121727822656E+02
  0.124716604927E+02  0.127623932382E+02  0.130436387240E+02  0.133140271065E+02  0.135721699422E+02
  0.138166708948E+02  0.140461376993E+02  0.142591953763E+02  0.144545006695E+02  0.146307576567E+02
  0.147867344567E+02  0.149212809251E+02  0.150333472018E+02  0.151220029367E+02  0.151864569875E+02
  0.152260773435E+02  0.152404109947E+02  0.152292034277E+02  0.151924173922E+02  0.151302505520E+02
  0.150431516007E+02  0.149318343993E+02  0.147972896727E+02  0.146407937892E+02  0.144639141478E+02
  0.142685107019E+02  0.140567331695E+02  0.138310135139E+02  0.135940533219E+02  0.133488057726E+02
  0.130984519623E+02  0.128463714464E+02  0.125961069607E+02  0.123513234083E+02  0.121157613234E+02
  0.118931851645E+02  0.116873269298E+02  0.115018257328E+02  0.113401641192E+02  0.112056020638E+02
  0.111011096512E+02  0.110292996821E+02  0.109923614837E+02  0.109919973584E+02  0.110293632065E+02
  0.111050149408E+02  0.112188623622E+02  0.113701321621E+02  0.115573416609E+02  0.117782847637E+02
  0.120300313995E+02  0.123089414235E+02  0.126106936075E+02  0.129303299763E+02  0.132623154094E+02
  0.136006121135E+02  0.139387682707E+02  0.142700198321E+02  0.145874040570E+02  0.148838829941E+02
  0.151524747103E+02  0.153863896978E+02  0.155791695954E+02  0.157248251062E+02  0.158179698351E+02
  0.158539466807E+02  0.158289434117E+02  0.157400941356E+02  0.155855635490E+02  0.153646111088E+02
  0.150776326322E+02  0.147261772718E+02  0.143129383575E+02  0.138417172089E+02  0.133173597188E+02
  0.127456662690E+02  0.121332763417E+02  0.114875300383E+02  0.108163095642E+02  0.101278645875E+02
  0.943062615473E+01  0.873301454989E+01  0.804324700118E+01  0.736915143814E+01  0.671799246796E+01
  0.609631525724E+01  0.550981223061E+01  0.496321559924E+01  0.446021742338E+01  0.400341728431E+01
  0.359429635882E+01  0.323321966798E+01  0.291947066449E+01  0.265132452148E+01  0.242616353209E+01
  0.224062839642E+01  0.209078764783E+01  0.197230526818E+01  0.188059698091E+01  0.181097636964E+01
  0.175879338149E+01  0.171956404905E+01  0.168908757211E+01  0.166354651384E+01  0.163958668254E+01
  0.161437447499E+01  0.158563074624E+01  0.155164151703E+01  0.151124697780E+01  0.146381118531E+01
  0.140917557525E+01  0.134759986631E+01  0.127969416142E+01  0.120634603783E+01  0.112864622263E+01
  0.104781608512E+01  0.965139701677E+00  0.881902706477E+00  0.799339535880E+00  0.718590073699E+00
  0.640666388969E+00  0.566429120423E+00  0.496573513306E+00  0.431624098801E+00  0.371937014912E+00
  0.317708741774E+00  0.268989923935E+00  0.225702921141E+00  0.187661764289E+00  0.154593284090E+00
  0.126158311985E+00  0.101972021756E+00  0.816226696102E-01  0.646881893605E-01  0.507502952609E-01
  0.394059270671E-01  0.302760309424E-01  0.230118000542E-01  0.172985972381E-01  0.128578494430E-01
  0.944724264466E-02  0.685956073193E-02  0.492050700047E-02  0.348582627377E-02  0.243801265015E-02
  0.168284595378E-02  0.114595270110E-02  0.769538940617E-03  0.509396262528E-03  0.332241517894E-03
  0.213416967283E-03  0.134951273331E-03  0.839627037082E-04  0.513733626321E-04  0.308961958507E-04
  0.182538074658E-04  0.105886916574E-04  0.602731131596E-05  0.336467315346E-05  0.184093714642E-05
  0.986606790686E-06  0.517587339047E-06  0.265629047472E-06  0.133269197862E-06  0.653201707154E-07
  0.312549816560E-07  0.145890058628E-07  0.663796041747E-08  0.294171728273E-08  0.126871812829E-08
  0.532050559690E-09  0.216757509485E-09  0.857082762461E-10  0.328606663015E-10  0.122038380011E-10
  0.438559498184E-11  0.152336030287E-11
 kinetic energy-density
  0.314768519461E+03  0.316808320581E+03  0.318929877081E+03  0.321135380867E+03  0.323427791352E+03
  0.325810104588E+03  0.328285463974E+03  0.330857187202E+03  0.333528718655E+03  0.336303699310E+03
  0.339185890403E+03  0.342179392142E+03  0.345288344721E+03  0.348517264856E+03  0.351870735787E+03
  0.355353692313E+03  0.358971290669E+03  0.362728928349E+03  0.366632367024E+03  0.370687555647E+03
  0.374900832926E+03  0.379278836858E+03  0.383828528250E+03  0.388557249141E+03  0.393472715094E+03
  0.398583024630E+03  0.403896693125E+03  0.409422648013E+03  0.415170294879E+03  0.421149499291E+03
  0.427370620167E+03  0.433844545028E+03  0.440582703151E+03  0.447597101145E+03  0.454900351516E+03
  0.462505701321E+03  0.470427067307E+03  0.478679071332E+03  0.487277077166E+03  0.496237232036E+03
  0.505576506870E+03  0.515312743208E+03  0.525464699846E+03  0.536052103877E+03  0.547095703850E+03
  0.558617327137E+03  0.570639940434E+03  0.583187712089E+03  0.596286081496E+03  0.609961825085E+03
  0.624243141768E+03  0.639159723370E+03  0.654742845106E+03  0.671025447132E+03  0.688042233585E+03
  0.705829784446E+03  0.724426632590E+03  0.743873393410E+03  0.764212894823E+03  0.785490259887E+03
  0.807753087749E+03  0.831051548791E+03  0.855438565003E+03  0.880969930281E+03  0.907704496188E+03
  0.935704339339E+03  0.965034937669E+03  0.995765355952E+03  0.102796844570E+04  0.106172108001E+04
  0.109710433396E+04  0.113420374888E+04  0.117310957738E+04  0.121391701924E+04  0.125672652657E+04
  0.130164405414E+04  0.134878138829E+04  0.139825647265E+04  0.145019364722E+04  0.150472418974E+04
  0.156198643201E+04  0.162212637125E+04  0.168529788631E+04  0.175166332876E+04  0.182139383130E+04
  0.189466978590E+04  0.197168141652E+04  0.205262915774E+04  0.213772427732E+04  0.222718936879E+04
  0.232125892623E+04  0.242017996752E+04  0.252421261055E+04  0.263363074880E+04  0.274872268201E+04
  0.286979183102E+04  0.299715745236E+04  0.313115535220E+04  0.327213866063E+04  0.342047861957E+04
  0.357656538769E+04  0.374080885635E+04  0.391363952600E+04  0.409550933718E+04  0.428689258949E+04
  0.448828681802E+04  0.470021373762E+04  0.492322013408E+04  0.515787882366E+04  0.540478957466E+04
  0.566458004835E+04  0.593790673677E+04  0.622545586252E+04  0.652794431370E+04  0.684612049003E+04
  0.718076517391E+04  0.753269235613E+04  0.790274995253E+04  0.829182053663E+04  0.870082198984E+04
  0.913070800466E+04  0.958246859344E+04  0.100571304029E+05  0.105557569107E+05  0.110794485672E+05
  0.116293426352E+05  0.122066129612E+05  0.128124694677E+05  0.134481574673E+05  0.141149567189E+05
  0.148141801182E+05  0.155471722340E+05  0.163153073474E+05  0.171199872131E+05  0.179626384195E+05
  0.188447092352E+05  0.197676660548E+05  0.207329892896E+05  0.217421687112E+05  0.227966982441E+05
  0.238980700137E+05  0.250477678614E+05  0.262472600456E+05  0.274979911839E+05  0.288013734748E+05
  0.301587770068E+05  0.315715192000E+05  0.330408533832E+05  0.345679563927E+05  0.361539152281E+05
  0.377997126865E+05  0.395062120318E+05  0.412741406470E+05  0.431040726617E+05  0.449964105829E+05
  0.469513660048E+05  0.489689392888E+05  0.510488984777E+05  0.531907572909E+05  0.553937524436E+05
  0.576568203962E+05  0.599785734873E+05  0.623572758371E+05  0.647908190602E+05  0.672766980367E+05
  0.698119869795E+05  0.723933158791E+05  0.750168482148E+05  0.776782592418E+05  0.803727163582E+05
  0.830948609588E+05  0.858387929194E+05  0.885980576813E+05  0.913656366178E+05  0.941339412422E+05
  0.968948114737E+05  0.996395189530E+05  0.102358775452E+06  0.105042747278E+06  0.107681076051E+06
  0.110262906326E+06  0.112776920719E+06  0.115211382705E+06  0.117554187822E+06  0.119792923196E+06
  0.121914936083E+06  0.123907411060E+06  0.125757456427E+06  0.127452199123E+06  0.128978888486E+06
  0.130325007926E+06  0.131478394241E+06  0.132427363600E+06  0.133160843303E+06  0.133668507987E+06
  0.133940918934E+06  0.133969664836E+06  0.133747502104E+06  0.133268492645E+06  0.132528136951E+06
  0.131523499968E+06  0.130253327272E+06  0.128718148827E+06  0.126920367717E+06  0.124864331044E+06
  0.122556380475E+06  0.120004879870E+06  0.117220217773E+06  0.114214782833E+06  0.111002910582E+06
  0.107600800568E+06  0.104026403407E+06  0.100299277894E+06  0.964404192134E+05  0.924720597697E+05
  0.884174450072E+05  0.843005870019E+05  0.801460000506E+05  0.759784155624E+05  0.718224950943E+05
  0.677025238341E+05  0.636421048386E+05  0.596638516468E+05  0.557890867748E+05  0.520375538719E+05
  0.484271526877E+05  0.449737062552E+05  0.416907685111E+05  0.385894782212E+05  0.356784621805E+05
  0.329637879085E+05  0.304489638678E+05  0.281349838774E+05  0.260204119016E+05  0.241015036304E+05
  0.223723617548E+05  0.208251221148E+05  0.194501676301E+05  0.182363663155E+05  0.171713288723E+05
  0.162416805919E+05  0.154333417273E+05  0.147318102402E+05  0.141224407113E+05  0.135907135053E+05
  0.131224886397E+05  0.127042394002E+05  0.123232615909E+05  0.119678550372E+05  0.116274747022E+05
  0.112928499629E+05  0.109560709905E+05  0.106106421925E+05  0.102515033750E+05  0.987501949667E+04
  0.947894098595E+04  0.906233621387E+04  0.862549873649E+04  0.816983156876E+04  0.769771131612E+04
  0.721233523147E+04  0.671755440620E+04  0.621769740415E+04  0.571738918213E+04  0.522137170928E+04
  0.473433389579E+04  0.426075950828E+04  0.380480365996E+04  0.337020235642E+04  0.296020985600E+04
  0.257755893269E+04  0.222440465443E+04  0.190224784796E+04  0.161185080368E+04  0.135319680804E+04
  0.112554518183E+04  0.927577827833E+03  0.757566987966E+03  0.613500806367E+03  0.493163943300E+03
  0.394200880100E+03  0.314179174580E+03  0.250654374695E+03  0.201232338245E+03  0.163624781385E+03
  0.135695449539E+03  0.115495665285E+03  0.101288932274E+03  0.915649082220E+02  0.850435062997E+02
  0.806702586258E+02  0.776043823866E+02  0.752011168922E+02  0.729900383078E+02  0.706509429534E+02
  0.679887972658E+02  0.649090345437E+02  0.613942137152E+02  0.574828298521E+02  0.532506948638E+02
  0.487952770463E+02  0.442230535631E+02  0.396396017907E+02  0.351424367163E+02  0.308161847064E+02
  0.267297744099E+02  0.229352813487E+02  0.194680788662E+02  0.163479505188E+02  0.135808687024E+02
  0.111611711454E+02  0.907391333225E+01  0.729721748813E+01  0.580448179315E+01  0.456635437082E+01
  0.355241382496E+01  0.273253038590E+01  0.207790799491E+01  0.156182735334E+01  0.116012302585E+01
  0.851434870402E+00  0.617276401815E+00  0.441961768250E+00  0.312430080787E+00  0.218001737562E+00
  0.150096630869E+00  0.101938824593E+00  0.682666947817E-01  0.450620561766E-01  0.293067785454E-01
  0.187712111292E-01  0.118354883759E-01  0.734248101879E-02  0.447966992114E-02  0.268639806249E-02
  0.158263815072E-02  0.915455062289E-03  0.519619865761E-03  0.289247418140E-03  0.157805848069E-03
  0.843286190862E-04  0.441110612048E-04  0.225713153987E-04  0.112904915638E-04  0.551719164905E-05
  0.263188570977E-05  0.122474252871E-05  0.555553246782E-06  0.245454907204E-06  0.105543419454E-06
  0.441303307036E-07  0.179269609490E-07  0.706869666142E-08  0.270282033102E-08  0.100116168004E-08
  0.358877938055E-09  0.124358020569E-09
 mkinetic energy-density pseudized
  0.313142970079E-06  0.333839340014E-06  0.355903582667E-06  0.379426104028E-06  0.404503285229E-06
  0.431237877468E-06  0.459739423012E-06  0.490124704040E-06  0.522518221145E-06  0.557052703462E-06
  0.593869652512E-06  0.633119921992E-06  0.674964335877E-06  0.719574347388E-06  0.767132741496E-06
  0.817834383871E-06  0.871887019318E-06  0.929512122997E-06  0.990945807886E-06  0.105643979224E-05
  0.112626243097E-05  0.120069981520E-05  0.128005694451E-05  0.136465897664E-05  0.145485255975E-05
  0.155100725282E-05  0.165351703988E-05  0.176280194428E-05  0.187930974973E-05  0.200351783503E-05
  0.213593513008E-05  0.227710420116E-05  0.242760347406E-05  0.258804960410E-05  0.275910000281E-05
  0.294145553164E-05  0.313586337358E-05  0.334312009478E-05  0.356407490829E-05  0.379963315369E-05
  0.405076000656E-05  0.431848443326E-05  0.460390340695E-05  0.490818640231E-05  0.523258018740E-05
  0.557841393209E-05  0.594710465423E-05  0.634016302569E-05  0.675919956220E-05  0.720593122224E-05
  0.768218844209E-05  0.818992263584E-05  0.873121419109E-05  0.930828099309E-05  0.992348751225E-05
  0.105793544923E-04  0.112785692789E-04  0.120239968303E-04  0.128186914566E-04  0.136659093343E-04
  0.145691218479E-04  0.155320298137E-04  0.165585786433E-04  0.176529745094E-04  0.188197015803E-04
  0.200635403929E-04  0.213895874404E-04  0.228032760548E-04  0.243103986686E-04  0.259171305493E-04
  0.276300551010E-04  0.294561908394E-04  0.314030201488E-04  0.334785199405E-04  0.356911943366E-04
  0.380501095146E-04  0.405649308543E-04  0.432459625407E-04  0.461041897830E-04  0.491513238252E-04
  0.523998499305E-04  0.558630785378E-04  0.595551997984E-04  0.634913417178E-04  0.676876321394E-04
  0.721612648255E-04  0.769305699048E-04  0.820150889765E-04  0.874356551773E-04  0.932144785408E-04
  0.993752369974E-04  0.105943173389E-03  0.112945198895E-03  0.120410003294E-03  0.128368172511E-03
  0.136852313936E-03  0.145897190022E-03  0.155539860713E-03  0.165819835285E-03  0.176779234223E-03
  0.188462961792E-03  0.200918890016E-03  0.214198054817E-03  0.228354865110E-03  0.243447325723E-03
  0.259537275041E-03  0.276690638364E-03  0.294977697999E-03  0.314473381204E-03  0.335257567163E-03
  0.357415414240E-03  0.381037708866E-03  0.406221237472E-03  0.433069183009E-03  0.461691547657E-03
  0.492205603482E-03  0.524736372853E-03  0.559417140620E-03  0.596390000118E-03  0.635806435263E-03
  0.677827941093E-03  0.722626685325E-03  0.770386213605E-03  0.821302201365E-03  0.875583255343E-03
  0.933451768063E-03  0.995144828762E-03  0.106091519449E-02  0.113103232536E-02  0.120578348819E-02
  0.128547493304E-02  0.137043314748E-02  0.146100619364E-02  0.155756513366E-02  0.166050554919E-02
  0.177024916132E-02  0.188724555740E-02  0.201197403200E-02  0.214494554926E-02  0.228670483500E-02
  0.243783260679E-02  0.259894795130E-02  0.277071085865E-02  0.295382492388E-02  0.314904022685E-02
  0.335715640218E-02  0.357902591167E-02  0.381555753272E-02  0.406772007688E-02  0.433654635365E-02
  0.462313739573E-02  0.492866696296E-02  0.525438634311E-02  0.560162946934E-02  0.597181837479E-02
  0.636646900684E-02  0.678719742430E-02  0.723572640299E-02  0.771389247629E-02  0.822365343938E-02
  0.876709634744E-02  0.934644604029E-02  0.996407422786E-02  0.106225091734E-01  0.113244460131E-01
  0.120727577548E-01  0.128705069982E-01  0.137209584263E-01  0.146275921158E-01  0.155941177217E-01
  0.166244895925E-01  0.177229228757E-01  0.188939106793E-01  0.201422423573E-01  0.214730229913E-01
  0.228916941473E-01  0.244040559886E-01  0.260162908333E-01  0.277349882490E-01  0.295671717842E-01
  0.315203274411E-01  0.336024340013E-01  0.358219953237E-01  0.381880747396E-01  0.407103316795E-01
  0.433990606724E-01  0.462652328683E-01  0.493205402443E-01  0.525774426609E-01  0.560492179497E-01
  0.597500152208E-01  0.636949115905E-01  0.678999725414E-01  0.723823161395E-01  0.771601813444E-01
  0.822530006633E-01  0.876814774121E-01  0.934676678623E-01  0.996350685651E-01  0.106208709163E+00
  0.113215251012E+00  0.120683091950E+00  0.128642477578E+00  0.137125619418E+00  0.146166820339E+00
  0.155802607668E+00  0.166071874393E+00  0.177016028920E+00  0.188679153824E+00  0.201108174081E+00
  0.214353035256E+00  0.228466892167E+00  0.243506308523E+00  0.259531468068E+00  0.276606397768E+00
  0.294799203572E+00  0.314182319283E+00  0.334832769089E+00  0.356832444257E+00  0.380268394522E+00
  0.405233134649E+00  0.431824966619E+00  0.460148317870E+00  0.490314095932E+00  0.522440059761E+00
  0.556651207975E+00  0.593080184094E+00  0.631867698751E+00  0.673162968716E+00  0.717124172368E+00
  0.763918921043E+00  0.813724745451E+00  0.866729596039E+00  0.923132355853E+00  0.983143364037E+00
  0.104698494766E+01  0.111489195904E+01  0.118711231505E+01  0.126390753433E+01  0.134555326733E+01
  0.143233981345E+01  0.152457261819E+01  0.162257274228E+01  0.172667729335E+01  0.183723980909E+01
  0.195463057937E+01  0.207923689247E+01  0.221146318900E+01  0.235173110396E+01  0.250047937555E+01
  0.265816359551E+01  0.282525577320E+01  0.300224368151E+01  0.318962994904E+01  0.338793085835E+01
  0.359767480565E+01  0.381940037193E+01  0.405365395023E+01  0.430098686772E+01  0.456195193532E+01
  0.483709935089E+01  0.512697187552E+01  0.543209919570E+01  0.575299137734E+01  0.609013131135E+01
  0.644396604414E+01  0.681489688186E+01  0.720326815235E+01  0.760935450725E+01  0.803334664605E+01
  0.847533534712E+01  0.893529369728E+01  0.941305742331E+01  0.990830324630E+01  0.104205252053E+02
  0.109490089311E+02  0.114928038955E+02  0.120506937232E+02  0.126211647228E+02  0.132023728914E+02
  0.137921097566E+02  0.143877675582E+02  0.149863044385E+02  0.155842104982E+02  0.161774758070E+02
  0.167615617099E+02  0.173313770695E+02  0.178812614061E+02  0.184049772539E+02  0.188957144313E+02
  0.193461093128E+02  0.197482825748E+02  0.200938992509E+02  0.203742552262E+02  0.205803945016E+02
  0.207032615985E+02  0.207338932849E+02  0.206636533100E+02  0.204845129133E+02  0.201893784258E+02
  0.197724651545E+02  0.192297137875E+02  0.185592416348E+02  0.177618159597E+02  0.168413303585E+02
  0.158052575241E+02  0.146650428122E+02  0.134363929734E+02  0.121394035681E+02  0.107984575918E+02
  0.944181768806E+01  0.810082647653E+01  0.680862598085E+01  0.559831054930E+01  0.450044132906E+01
  0.353987824065E+01  0.273193193544E+01  0.207790799491E+01  0.156182735334E+01  0.116012302585E+01
  0.851434870402E+00  0.617276401815E+00  0.441961768250E+00  0.312430080787E+00  0.218001737562E+00
  0.150096630869E+00  0.101938824593E+00  0.682666947817E-01  0.450620561766E-01  0.293067785454E-01
  0.187712111292E-01  0.118354883759E-01  0.734248101879E-02  0.447966992114E-02  0.268639806249E-02
  0.158263815072E-02  0.915455062289E-03  0.519619865761E-03  0.289247418140E-03  0.157805848069E-03
  0.843286190862E-04  0.441110612048E-04  0.225713153987E-04  0.112904915638E-04  0.551719164905E-05
  0.263188570977E-05  0.122474252871E-05  0.555553246782E-06  0.245454907204E-06  0.105543419454E-06
  0.441303307036E-07  0.179269609490E-07  0.706869666142E-08  0.270282033102E-08  0.100116168004E-08
  0.358877938055E-09  0.124358020569E-09
 local pseudopotential core
 -0.406646190764E+03 -0.406647976384E+03 -0.406649705761E+03 -0.406651380670E+03 -0.406653002823E+03
 -0.406654573882E+03 -0.406656095457E+03 -0.406657569105E+03 -0.406658996335E+03 -0.406660378608E+03
 -0.406661717339E+03 -0.406663013900E+03 -0.406664269617E+03 -0.406665485777E+03 -0.406666663624E+03
 -0.406667804364E+03 -0.406668909165E+03 -0.406669979159E+03 -0.406671015440E+03 -0.406672019069E+03
 -0.406672991073E+03 -0.406673932447E+03 -0.406674844156E+03 -0.406675727130E+03 -0.406676582275E+03
 -0.406677410465E+03 -0.406678212548E+03 -0.406678989344E+03 -0.406679741647E+03 -0.406680470228E+03
 -0.406681175831E+03 -0.406681859178E+03 -0.406682520967E+03 -0.406683161875E+03 -0.406683782558E+03
 -0.406684383648E+03 -0.406684965761E+03 -0.406685529491E+03 -0.406686075414E+03 -0.406686604086E+03
 -0.406687116047E+03 -0.406687611820E+03 -0.406688091911E+03 -0.406688556807E+03 -0.406689006984E+03
 -0.406689442899E+03 -0.406689864995E+03 -0.406690273703E+03 -0.406690669438E+03 -0.406691052601E+03
 -0.406691423581E+03 -0.406691782755E+03 -0.406692130485E+03 -0.406692467124E+03 -0.406692793012E+03
 -0.406693108476E+03 -0.406693413836E+03 -0.406693709398E+03 -0.406693995458E+03 -0.406694272304E+03
 -0.406694540211E+03 -0.406694799447E+03 -0.406695050270E+03 -0.406695292927E+03 -0.406695527658E+03
 -0.406695754695E+03 -0.406695974260E+03 -0.406696186566E+03 -0.406696391820E+03 -0.406696590219E+03
 -0.406696781953E+03 -0.406696967206E+03 -0.406697146151E+03 -0.406697318957E+03 -0.406697485782E+03
 -0.406697646780E+03 -0.406697802097E+03 -0.406697951871E+03 -0.406698096234E+03 -0.406698235310E+03
 -0.406698369216E+03 -0.406698498064E+03 -0.406698621956E+03 -0.406698740991E+03 -0.406698855257E+03
 -0.406698964837E+03 -0.406699069808E+03 -0.406699170237E+03 -0.406699266186E+03 -0.406699357709E+03
 -0.406699444853E+03 -0.406699527656E+03 -0.406699606150E+03 -0.406699680359E+03 -0.406699750296E+03
 -0.406699815970E+03 -0.406699877377E+03 -0.406699934508E+03 -0.406699987341E+03 -0.406700035847E+03
 -0.406700079987E+03 -0.406700119710E+03 -0.406700154955E+03 -0.406700185651E+03 -0.406700211712E+03
 -0.406700233043E+03 -0.406700249534E+03 -0.406700261062E+03 -0.406700267490E+03 -0.406700268665E+03
 -0.406700264420E+03 -0.406700254568E+03 -0.406700238906E+03 -0.406700217215E+03 -0.406700189251E+03
 -0.406700154754E+03 -0.406700113438E+03 -0.406700064997E+03 -0.406700009097E+03 -0.406699945380E+03
 -0.406699873459E+03 -0.406699792917E+03 -0.406699703307E+03 -0.406699604146E+03 -0.406699494919E+03
 -0.406699375070E+03 -0.406699244005E+03 -0.406699101086E+03 -0.406698945630E+03 -0.406698776905E+03
 -0.406698594131E+03 -0.406698396468E+03 -0.406698183021E+03 -0.406697952833E+03 -0.406697704881E+03
 -0.406697438071E+03 -0.406697151234E+03 -0.406696843121E+03 -0.406696512401E+03 -0.406696157649E+03
 -0.406695777345E+03 -0.406695369868E+03 -0.406694933485E+03 -0.406694466349E+03 -0.406693966486E+03
 -0.406693431793E+03 -0.406692860025E+03 -0.406692248785E+03 -0.406691595518E+03 -0.406690897498E+03
 -0.406690151817E+03 -0.406689355373E+03 -0.406688504858E+03 -0.406687596744E+03 -0.406686627268E+03
 -0.406685592418E+03 -0.406684487913E+03 -0.406683309191E+03 -0.406682051385E+03 -0.406680709306E+03
 -0.406679277422E+03 -0.406677749833E+03 -0.406676120248E+03 -0.406674381959E+03 -0.406672527816E+03
 -0.406670550192E+03 -0.406668440959E+03 -0.406666191449E+03 -0.406663792420E+03 -0.406661234019E+03
 -0.406658505741E+03 -0.406655596388E+03 -0.406652494020E+03 -0.406649185907E+03 -0.406645658478E+03
 -0.406641897266E+03 -0.406637886845E+03 -0.406633610772E+03 -0.406629051517E+03 -0.406624190392E+03
 -0.406619007472E+03 -0.406613481519E+03 -0.406607589890E+03 -0.406601308447E+03 -0.406594611457E+03
 -0.406587471491E+03 -0.406579859305E+03 -0.406571743726E+03 -0.406563091525E+03 -0.406553867276E+03
 -0.406544033218E+03 -0.406533549097E+03 -0.406522372004E+03 -0.406510456198E+03 -0.406497752923E+03
 -0.406484210206E+03 -0.406469772645E+03 -0.406454381191E+03 -0.406437972898E+03 -0.406420480672E+03
 -0.406401833002E+03 -0.406381953662E+03 -0.406360761407E+03 -0.406338169644E+03 -0.406314086077E+03
 -0.406288412340E+03 -0.406261043593E+03 -0.406231868099E+03 -0.406200766779E+03 -0.406167612725E+03
 -0.406132270690E+03 -0.406094596548E+03 -0.406054436711E+03 -0.406011627511E+03 -0.405965994550E+03
 -0.405917351995E+03 -0.405865501841E+03 -0.405810233117E+03 -0.405751321051E+03 -0.405688526169E+03
 -0.405621593354E+03 -0.405550250829E+03 -0.405474209090E+03 -0.405393159759E+03 -0.405306774381E+03
 -0.405214703132E+03 -0.405116573455E+03 -0.405011988610E+03 -0.404900526139E+03 -0.404781736227E+03
 -0.404655139980E+03 -0.404520227587E+03 -0.404376456374E+03 -0.404223248753E+03 -0.404059990036E+03
 -0.403886026135E+03 -0.403700661121E+03 -0.403503154653E+03 -0.403292719249E+03 -0.403068517425E+03
 -0.402829658658E+03 -0.402575196204E+03 -0.402304123731E+03 -0.402015371794E+03 -0.401707804121E+03
 -0.401380213721E+03 -0.401031318802E+03 -0.400659758504E+03 -0.400264088438E+03 -0.399842776029E+03
 -0.399394195682E+03 -0.398916623744E+03 -0.398408233295E+03 -0.397867088758E+03 -0.397291140353E+03
 -0.396678218395E+03 -0.396026027466E+03 -0.395332140478E+03 -0.394593992669E+03 -0.393808875542E+03
 -0.392973930829E+03 -0.392086144489E+03 -0.391142340846E+03 -0.390139176903E+03 -0.389073136945E+03
 -0.387940527517E+03 -0.386737472907E+03 -0.385459911260E+03 -0.384103591484E+03 -0.382664071139E+03
 -0.381136715502E+03 -0.379516698056E+03 -0.377799002672E+03 -0.375978427792E+03 -0.374049592961E+03
 -0.372006948101E+03 -0.369844785969E+03 -0.367557258302E+03 -0.365138396197E+03 -0.362582135354E+03
 -0.359882346859E+03 -0.357032874287E+03 -0.354027577941E+03 -0.350860387158E+03 -0.347525361689E+03
 -0.344016763211E+03 -0.340329138146E+03 -0.336457413006E+03 -0.332397003540E+03 -0.328143939015E+03
 -0.323695002924E+03 -0.319047891400E+03 -0.314201390417E+03 -0.309155572500E+03 -0.303912012916E+03
 -0.298474023662E+03 -0.292846900343E+03 -0.287038170375E+03 -0.281057817929E+03 -0.274918436224E+03
 -0.268635213175E+03 -0.262225583448E+03 -0.255708281266E+03 -0.249101451380E+03 -0.242419579864E+03
 -0.235669620237E+03 -0.228848158441E+03 -0.221943467069E+03 -0.214946932145E+03 -0.207874517928E+03
 -0.200788420257E+03 -0.193787954645E+03 -0.186909113577E+03 -0.179951066939E+03 -0.172671426820E+03
 -0.166435163123E+03 -0.160634989975E+03 -0.155275636946E+03 -0.150387591559E+03 -0.145983854322E+03
 -0.142043890884E+03 -0.137782267213E+03 -0.133442181224E+03 -0.129239070165E+03 -0.125168505420E+03
 -0.121226265989E+03 -0.117408268592E+03 -0.113710570357E+03 -0.110129365270E+03 -0.106660971580E+03
 -0.103301825866E+03 -0.100048482593E+03 -0.968976047150E+02 -0.938459633475E+02 -0.908904311894E+02
 -0.880279802197E+02 -0.852556785712E+02 -0.825706866998E+02 -0.799702546988E+02 -0.774517193243E+02
 -0.750125009490E+02 -0.726501021711E+02 -0.703621034069E+02 -0.681461615447E+02 -0.660000072228E+02
 -0.639214424799E+02 -0.619083387755E+02 -0.599586344542E+02 -0.580703328262E+02 -0.562415001111E+02
 -0.544702634577E+02 -0.527548089751E+02 -0.510933799245E+02 -0.494842748737E+02 -0.479258460000E+02
 -0.464164973595E+02 -0.449546832686E+02
 pspotential valence only
 -0.305852902052E+03 -0.305854687682E+03 -0.305856417072E+03 -0.305858091992E+03 -0.305859714158E+03
 -0.305861285232E+03 -0.305862806820E+03 -0.305864280484E+03 -0.305865707731E+03 -0.305867090021E+03
 -0.305868428771E+03 -0.305869725352E+03 -0.305870981091E+03 -0.305872197274E+03 -0.305873375145E+03
 -0.305874515912E+03 -0.305875620740E+03 -0.305876690764E+03 -0.305877727076E+03 -0.305878730739E+03
 -0.305879702778E+03 -0.305880644191E+03 -0.305881555940E+03 -0.305882438958E+03 -0.305883294149E+03
 -0.305884122388E+03 -0.305884924524E+03 -0.305885701375E+03 -0.305886453739E+03 -0.305887182383E+03
 -0.305887888054E+03 -0.305888571473E+03 -0.305889233339E+03 -0.305889874330E+03 -0.305890495100E+03
 -0.305891096284E+03 -0.305891678497E+03 -0.305892242333E+03 -0.305892788369E+03 -0.305893317162E+03
 -0.305893829252E+03 -0.305894325162E+03 -0.305894805399E+03 -0.305895270451E+03 -0.305895720794E+03
 -0.305896156886E+03 -0.305896579172E+03 -0.305896988082E+03 -0.305897384031E+03 -0.305897767423E+03
 -0.305898138648E+03 -0.305898498081E+03 -0.305898846089E+03 -0.305899183024E+03 -0.305899509227E+03
 -0.305899825028E+03 -0.305900130746E+03 -0.305900426690E+03 -0.305900713158E+03 -0.305900990438E+03
 -0.305901258808E+03 -0.305901518538E+03 -0.305901769886E+03 -0.305902013105E+03 -0.305902248434E+03
 -0.305902476109E+03 -0.305902696353E+03 -0.305902909384E+03 -0.305903115410E+03 -0.305903314633E+03
 -0.305903507246E+03 -0.305903693434E+03 -0.305903873378E+03 -0.305904047247E+03 -0.305904215207E+03
 -0.305904377415E+03 -0.305904534021E+03 -0.305904685169E+03 -0.305904830997E+03 -0.305904971635E+03
 -0.305905107206E+03 -0.305905237830E+03 -0.305905363615E+03 -0.305905484667E+03 -0.305905601085E+03
 -0.305905712958E+03 -0.305905820374E+03 -0.305905923409E+03 -0.305906022137E+03 -0.305906116623E+03
 -0.305906206925E+03 -0.305906293095E+03 -0.305906375179E+03 -0.305906453214E+03 -0.305906527232E+03
 -0.305906597254E+03 -0.305906663299E+03 -0.305906725372E+03 -0.305906783476E+03 -0.305906837600E+03
 -0.305906887730E+03 -0.305906933838E+03 -0.305906975891E+03 -0.305907013844E+03 -0.305907047642E+03
 -0.305907077222E+03 -0.305907102507E+03 -0.305907123410E+03 -0.305907139832E+03 -0.305907151662E+03
 -0.305907158776E+03 -0.305907161034E+03 -0.305907158283E+03 -0.305907150355E+03 -0.305907137065E+03
 -0.305907118210E+03 -0.305907093572E+03 -0.305907062910E+03 -0.305907025964E+03 -0.305906982454E+03
 -0.305906932076E+03 -0.305906874500E+03 -0.305906809374E+03 -0.305906736316E+03 -0.305906654917E+03
 -0.305906564735E+03 -0.305906465297E+03 -0.305906356096E+03 -0.305906236586E+03 -0.305906106185E+03
 -0.305905964265E+03 -0.305905810157E+03 -0.305905643145E+03 -0.305905462460E+03 -0.305905267283E+03
 -0.305905056736E+03 -0.305904829880E+03 -0.305904585713E+03 -0.305904323165E+03 -0.305904041091E+03
 -0.305903738269E+03 -0.305903413394E+03 -0.305903065073E+03 -0.305902691819E+03 -0.305902292044E+03
 -0.305901864053E+03 -0.305901406039E+03 -0.305900916072E+03 -0.305900392093E+03 -0.305899831907E+03
 -0.305899233169E+03 -0.305898593380E+03 -0.305897909874E+03 -0.305897179808E+03 -0.305896400147E+03
 -0.305895567658E+03 -0.305894678889E+03 -0.305893730161E+03 -0.305892717552E+03 -0.305891636875E+03
 -0.305890483671E+03 -0.305889253180E+03 -0.305887940330E+03 -0.305886539712E+03 -0.305885045556E+03
 -0.305883451715E+03 -0.305881751630E+03 -0.305879938311E+03 -0.305878004304E+03 -0.305875941660E+03
 -0.305873741909E+03 -0.305871396016E+03 -0.305868894350E+03 -0.305866226645E+03 -0.305863381953E+03
 -0.305860348605E+03 -0.305857114160E+03 -0.305853665353E+03 -0.305849988047E+03 -0.305846067166E+03
 -0.305841886642E+03 -0.305837429343E+03 -0.305832677007E+03 -0.305827610167E+03 -0.305822208069E+03
 -0.305816448590E+03 -0.305810308147E+03 -0.305803761601E+03 -0.305796782153E+03 -0.305789341238E+03
 -0.305781408405E+03 -0.305772951195E+03 -0.305763935011E+03 -0.305754322973E+03 -0.305744075770E+03
 -0.305733151503E+03 -0.305721505510E+03 -0.305709090189E+03 -0.305695854802E+03 -0.305681745272E+03
 -0.305666703963E+03 -0.305650669444E+03 -0.305633576247E+03 -0.305615354597E+03 -0.305595930135E+03
 -0.305575223612E+03 -0.305553150579E+03 -0.305529621039E+03 -0.305504539091E+03 -0.305477802544E+03
 -0.305449302506E+03 -0.305418922953E+03 -0.305386540261E+03 -0.305352022718E+03 -0.305315229997E+03
 -0.305276012602E+03 -0.305234211273E+03 -0.305189656360E+03 -0.305142167154E+03 -0.305091551175E+03
 -0.305037603418E+03 -0.304980105557E+03 -0.304918825087E+03 -0.304853514429E+03 -0.304783909969E+03
 -0.304709731046E+03 -0.304630678873E+03 -0.304546435401E+03 -0.304456662107E+03 -0.304360998721E+03
 -0.304259061868E+03 -0.304150443643E+03 -0.304034710096E+03 -0.303911399635E+03 -0.303780021342E+03
 -0.303640053197E+03 -0.303490940200E+03 -0.303332092401E+03 -0.303162882829E+03 -0.302982645305E+03
 -0.302790672160E+03 -0.302586211833E+03 -0.302368466365E+03 -0.302136588772E+03 -0.301889680310E+03
 -0.301626787626E+03 -0.301346899797E+03 -0.301048945257E+03 -0.300731788629E+03 -0.300394227451E+03
 -0.300034988812E+03 -0.299652725919E+03 -0.299246014588E+03 -0.298813349695E+03 -0.298353141596E+03
 -0.297863712550E+03 -0.297343293164E+03 -0.296790018912E+03 -0.296201926761E+03 -0.295576951948E+03
 -0.294912924989E+03 -0.294207568966E+03 -0.293458497189E+03 -0.292663211314E+03 -0.291819100031E+03
 -0.290923438446E+03 -0.289973388287E+03 -0.288965999108E+03 -0.287898210656E+03 -0.286766856627E+03
 -0.285568670017E+03 -0.284300290347E+03 -0.282958273055E+03 -0.281539101354E+03 -0.280039200950E+03
 -0.278454957992E+03 -0.276782740703E+03 -0.275018925164E+03 -0.273159925769E+03 -0.271202230911E+03
 -0.269142444479E+03 -0.266977333803E+03 -0.264703884675E+03 -0.262319364105E+03 -0.259821391448E+03
 -0.257208018510E+03 -0.254477819160E+03 -0.251629988872E+03 -0.248664454428E+03 -0.245581993774E+03
 -0.242384365664E+03 -0.239074448218E+03 -0.235656384858E+03 -0.232135735081E+03 -0.228519626029E+03
 -0.224816898388E+03 -0.221038235942E+03 -0.217196260559E+03 -0.213305560376E+03 -0.209382593430E+03
 -0.205445363880E+03 -0.201512695329E+03 -0.197602828265E+03 -0.193730994684E+03 -0.189905732478E+03
 -0.186124324430E+03 -0.182369227204E+03 -0.178609379686E+03 -0.174810934945E+03 -0.170958168109E+03
 -0.167074824764E+03 -0.163215093863E+03 -0.159363790119E+03 -0.155264162177E+03 -0.150615250927E+03
 -0.146723709480E+03 -0.142927812648E+03 -0.139185833299E+03 -0.135493989688E+03 -0.131847013387E+03
 -0.128224997567E+03 -0.124659152874E+03 -0.121163537829E+03 -0.117736808026E+03 -0.114382224450E+03
 -0.111102675786E+03 -0.107900464195E+03 -0.104777219628E+03 -0.101733922173E+03 -0.987709674964E+02
 -0.958882547962E+02 -0.930852705363E+02 -0.903611451143E+02 -0.877146838746E+02 -0.851443759005E+02
 -0.826483876739E+02 -0.802245648139E+02 -0.778704488383E+02 -0.755833289323E+02 -0.733603288855E+02
 -0.711985262328E+02 -0.690950882372E+02 -0.670474054409E+02 -0.650532038511E+02 -0.631106218217E+02
 -0.612182463961E+02 -0.593751067029E+02 -0.575806329726E+02 -0.558345849432E+02 -0.541369584638E+02
 -0.524878767621E+02 -0.508874739593E+02 -0.493357796346E+02 -0.478326150164E+02 -0.463775123152E+02
 -0.449696674309E+02 -0.436079321210E+02
 core charge-density (pseudized)
  0.349072909406E-08  0.372143975205E-08  0.396739863068E-08  0.422961352139E-08  0.450915882300E-08
  0.480717994391E-08  0.512489799528E-08  0.546361479448E-08  0.582471819906E-08  0.620968779343E-08
  0.662010095127E-08  0.705763929864E-08  0.752409560432E-08  0.802138112545E-08  0.855153343875E-08
  0.911672478923E-08  0.971927099079E-08  0.103616409150E-07  0.110464666071E-07  0.117765540703E-07
  0.125548947636E-07  0.133846778584E-07  0.142693033061E-07  0.152123957692E-07  0.162178194725E-07
  0.172896940369E-07  0.184324113587E-07  0.196506536051E-07  0.209494123991E-07  0.223340092718E-07
  0.238101174668E-07  0.253837851863E-07  0.270614603721E-07  0.288500171262E-07  0.307567838762E-07
  0.327895734028E-07  0.349567148519E-07  0.372670878627E-07  0.397301589506E-07  0.423560202953E-07
  0.451554310927E-07  0.481398616395E-07  0.513215403312E-07  0.547135037670E-07  0.583296501655E-07
  0.621847963114E-07  0.662947382655E-07  0.706763160874E-07  0.753474828358E-07  0.803273781289E-07
  0.856364065672E-07  0.912963213388E-07  0.973303133507E-07  0.103763106251E-06  0.110621057731E-06
  0.117932267522E-06  0.125726692533E-06  0.134036269593E-06  0.142895046311E-06  0.152339320577E-06
  0.162407789295E-06  0.173141706935E-06  0.184585054566E-06  0.196784720069E-06  0.209790690246E-06
  0.223656255643E-06  0.238438228894E-06  0.254197177508E-06  0.270997672034E-06  0.288908550630E-06
  0.308003201117E-06  0.328359861677E-06  0.350061941422E-06  0.373198362151E-06  0.397863922691E-06
  0.424159687323E-06  0.452193399879E-06  0.482079925197E-06  0.513941719773E-06  0.547909333493E-06
  0.584121944547E-06  0.622727929685E-06  0.663885472160E-06  0.707763209859E-06  0.754540926259E-06
  0.804410287059E-06  0.857575625484E-06  0.914254779504E-06  0.974679984369E-06  0.103909882414E-05
  0.110777524613E-05  0.118099064230E-05  0.125904500228E-05  0.134225814241E-05  0.143097101615E-05
  0.152554711104E-05  0.162637393793E-05  0.173386461875E-05  0.184845957909E-05  0.197062835272E-05
  0.210087150531E-05  0.223972268535E-05  0.238775081051E-05  0.254556239858E-05  0.271380405241E-05
  0.289316510904E-05  0.308438046397E-05  0.328823358197E-05  0.350555970696E-05  0.373724928391E-05
  0.398425160691E-05  0.424757870837E-05  0.452830950505E-05  0.482759421826E-05  0.514665908601E-05
  0.548681138653E-05  0.584944479383E-05  0.623604508700E-05  0.664819623689E-05  0.708758689479E-05
  0.755601731001E-05  0.805540670440E-05  0.858780113412E-05  0.915538187082E-05  0.976047433660E-05
  0.104055576292E-04  0.110932746762E-04  0.118264430609E-04  0.126080665619E-04  0.134413474564E-04
  0.143296996354E-04  0.152767625849E-04  0.162864162917E-04  0.173627971324E-04  0.185103148124E-04
  0.197336704239E-04  0.210378756952E-04  0.224282735124E-04  0.239105597955E-04  0.254908068184E-04
  0.271754880700E-04  0.289715047543E-04  0.308862140421E-04  0.329274591856E-04  0.351036016217E-04
  0.374235551933E-04  0.398968226288E-04  0.425335344290E-04  0.453444903185E-04  0.483412034324E-04
  0.515359474165E-04  0.549418066343E-04  0.585727296837E-04  0.624435864428E-04  0.665702288749E-04
  0.709695558415E-04  0.756595821853E-04  0.806595123651E-04  0.859898189393E-04  0.916723262186E-04
  0.977302994247E-04  0.104188539718E-03  0.111073485476E-03  0.118413320238E-03  0.126238087739E-03
  0.134579814515E-03  0.143472640559E-03  0.152952958561E-03  0.163059562285E-03  0.173833804696E-03
  0.185319766445E-03  0.197564435409E-03  0.210617897995E-03  0.224533542975E-03  0.239368278653E-03
  0.255182764249E-03  0.272041656399E-03  0.290013871759E-03  0.309172866742E-03  0.329596935505E-03
  0.351369527339E-03  0.374579584726E-03  0.399321903368E-03  0.425697515605E-03  0.453814098698E-03
  0.483786409572E-03  0.515736747678E-03  0.549795447767E-03  0.586101404445E-03  0.624802630508E-03
  0.666056851178E-03  0.710032136456E-03  0.756907573977E-03  0.806873984842E-03  0.860134685097E-03
  0.916906295615E-03  0.977419603342E-03  0.104192047700E-02  0.111067084050E-02  0.118394970755E-02
  0.126205428096E-02  0.134530112055E-02  0.143402738359E-02  0.152859214193E-02  0.162937778010E-02
  0.173679147911E-02  0.185126679046E-02  0.197326530545E-02  0.210327842477E-02  0.224182923375E-02
  0.238947448864E-02  0.254680671955E-02  0.271445645579E-02  0.289309457948E-02  0.308343481328E-02
  0.328623634833E-02  0.350230661839E-02  0.373250422598E-02  0.397774202671E-02  0.423899037706E-02
  0.451728055148E-02  0.481370833351E-02  0.512943778584E-02  0.546570520304E-02  0.582382325046E-02
  0.620518529132E-02  0.661126990338E-02  0.704364558466E-02  0.750397564650E-02  0.799402328971E-02
  0.851565685780E-02  0.907085525775E-02  0.966171353632E-02  0.102904485952E-01  0.109594050250E-01
  0.116710610310E-01  0.124280344207E-01  0.132330886127E-01  0.140891386219E-01  0.149992569647E-01
  0.159666794192E-01  0.169948105627E-01  0.180872289958E-01  0.192476921485E-01  0.204801405452E-01
  0.217887013868E-01  0.231776912886E-01  0.246516179845E-01  0.262151807874E-01  0.278732695588E-01
  0.296309619130E-01  0.314935183425E-01  0.334663749095E-01  0.355551331071E-01  0.377655464420E-01
  0.401035032401E-01  0.425750051187E-01  0.451861405071E-01  0.479430525334E-01  0.508519005256E-01
  0.539188143031E-01  0.571498403618E-01  0.605508789785E-01  0.641276111882E-01  0.678854145140E-01
  0.718292662635E-01  0.759636331480E-01  0.802923459359E-01  0.848184578256E-01  0.895440852236E-01
  0.944702296434E-01  0.995965795211E-01  0.104921290867E+00  0.110440745878E+00  0.116149288907E+00
  0.122038939593E+00  0.128099083419E+00  0.134316140684E+00  0.140673215643E+00  0.147149728638E+00
  0.153721035302E+00  0.160358038441E+00  0.167026800045E+00  0.173688163013E+00  0.180297394731E+00
  0.186803867486E+00  0.193150793999E+00  0.199275039975E+00  0.205107039554E+00  0.210570843738E+00
  0.215584336257E+00  0.220059655610E+00  0.223903866069E+00  0.227019923703E+00  0.229307985755E+00
  0.230667112076E+00  0.230997405296E+00  0.230202630782E+00  0.228193347259E+00  0.224890562728E+00
  0.220229906594E+00  0.214166276002E+00  0.206678870513E+00  0.197776472901E+00  0.187502763476E+00
  0.175941370365E+00  0.163220258682E+00  0.149514949271E+00  0.135049936801E+00  0.120097554308E+00
  0.104973418126E+00  0.900274995551E-01  0.756298302163E-01  0.621498860830E-01  0.499288478121E-01
  0.392442462198E-01  0.302670210821E-01  0.230118000542E-01  0.172985972381E-01  0.128578494430E-01
  0.944724264466E-02  0.685956073193E-02  0.492050700047E-02  0.348582627377E-02  0.243801265015E-02
  0.168284595378E-02  0.114595270110E-02  0.769538940617E-03  0.509396262528E-03  0.332241517894E-03
  0.213416967283E-03  0.134951273331E-03  0.839627037082E-04  0.513733626321E-04  0.308961958507E-04
  0.182538074658E-04  0.105886916574E-04  0.602731131596E-05  0.336467315346E-05  0.184093714642E-05
  0.986606790686E-06  0.517587339047E-06  0.265629047472E-06  0.133269197862E-06  0.653201707154E-07
  0.312549816560E-07  0.145890058628E-07  0.663796041747E-08  0.294171728273E-08  0.126871812829E-08
  0.532050559690E-09  0.216757509485E-09  0.857082762461E-10  0.328606663015E-10  0.122038380011E-10
  0.438559498184E-11  0.152336030287E-11
 pseudo wavefunction
  0.122122787574E-07  0.130194175506E-07  0.138799020822E-07  0.147972580999E-07  0.157752443766E-07
  0.168178681115E-07  0.179294013491E-07  0.191143984835E-07  0.203777149198E-07  0.217245269684E-07
  0.231603530544E-07  0.246910763288E-07  0.263229687741E-07  0.280627169033E-07  0.299174491570E-07
  0.318947651113E-07  0.340027666167E-07  0.362500909942E-07  0.386459464262E-07  0.412001496857E-07
  0.439231663598E-07  0.468261537312E-07  0.499210064942E-07  0.532204054915E-07  0.567378696735E-07
  0.604878114898E-07  0.644855959436E-07  0.687476035476E-07  0.732912974416E-07  0.781352949461E-07
  0.832994438445E-07  0.888049037076E-07  0.946742325926E-07  0.100931479472E-06  0.107602282773E-06
  0.114713975427E-06  0.122295696862E-06  0.130378512403E-06  0.138995540555E-06  0.148182088701E-06
  0.157975797777E-06  0.168416796493E-06  0.179547865763E-06  0.191414613993E-06  0.204065663954E-06
  0.217552852013E-06  0.231931440523E-06  0.247260344255E-06  0.263602371798E-06  0.281024482905E-06
  0.299598062859E-06  0.319399214962E-06  0.340509072358E-06  0.363014130474E-06  0.387006601417E-06
  0.412584791809E-06  0.439853505582E-06  0.468924473402E-06  0.499916810474E-06  0.532957504597E-06
  0.568181936487E-06  0.605734434479E-06  0.645768865898E-06  0.688449267506E-06  0.733950517628E-06
  0.782459052688E-06  0.834173631112E-06  0.889306147712E-06  0.948082501898E-06  0.101074352327E-05
  0.107754595839E-05  0.114876352274E-05  0.122468802228E-05  0.130563054902E-05  0.139192275573E-05
  0.148391821480E-05  0.158199386695E-05  0.168655156572E-05  0.179801972396E-05  0.191685506918E-05
  0.204354451495E-05  0.217860715591E-05  0.232259639467E-05  0.247610220931E-05  0.263975357065E-05
  0.281422101936E-05  0.300021941337E-05  0.319851085684E-05  0.340990782273E-05  0.363527648172E-05
  0.387554025111E-05  0.413168357836E-05  0.440475597458E-05  0.469587631463E-05  0.500623742141E-05
  0.533711095313E-05  0.568985261354E-05  0.606590770651E-05  0.646681705771E-05  0.689422332763E-05
  0.734987774181E-05  0.783564726581E-05  0.835352225445E-05  0.890562460642E-05  0.949421645792E-05
  0.101217094507E-04  0.107906746128E-04  0.115038528918E-04  0.122641663847E-04  0.130747303095E-04
  0.139388657680E-04  0.148601133522E-04  0.158422476493E-04  0.168892927059E-04  0.180055385134E-04
  0.191955585833E-04  0.204642286831E-04  0.218167468112E-04  0.232586544907E-04  0.247958594708E-04
  0.264346599281E-04  0.281817702660E-04  0.300443486206E-04  0.320300261819E-04  0.341469384530E-04
  0.364037585753E-04  0.388097328536E-04  0.413747186295E-04  0.441092246559E-04  0.470244541392E-04
  0.501323506242E-04  0.534456469099E-04  0.569779171966E-04  0.607436326772E-04  0.647582207992E-04
  0.690381284419E-04  0.736008892645E-04  0.784651955026E-04  0.836509745044E-04  0.891794703217E-04
  0.950733306866E-04  0.101356699732E-03  0.108055316829E-03  0.115196621955E-03  0.122809868011E-03
  0.130926240553E-03  0.139578985425E-03  0.148803544812E-03  0.158637702277E-03  0.169121737351E-03
  0.180298590339E-03  0.192214037977E-03  0.204916880687E-03  0.218459142168E-03  0.232896282153E-03
  0.248287423183E-03  0.264695592329E-03  0.282187978838E-03  0.300836208753E-03  0.320716637620E-03
  0.341910662465E-03  0.364505054311E-03  0.388592312573E-03  0.414271042776E-03  0.441646359112E-03
  0.470830313461E-03  0.501942352620E-03  0.535109805565E-03  0.570468402718E-03  0.608162829304E-03
  0.648347315020E-03  0.691186262373E-03  0.736854916223E-03  0.785540077175E-03  0.837440861701E-03
  0.892769511999E-03  0.951752258811E-03  0.101463024063E-02  0.108166048294E-02  0.115311694132E-02
  0.122929161261E-02  0.131049571838E-02  0.139706096545E-02  0.148934088834E-02  0.158771227883E-02
  0.169257670834E-02  0.180436214874E-02  0.192352469817E-02  0.205055041814E-02  0.218595728923E-02
  0.233029729258E-02  0.248415862517E-02  0.264816805714E-02  0.282299344000E-02  0.300934637500E-02
  0.320798505142E-02  0.341971726530E-02  0.364540362941E-02  0.388596098601E-02  0.414236603462E-02
  0.441565918739E-02  0.470694866572E-02  0.501741485198E-02  0.534831491123E-02  0.570098769832E-02
  0.607685896654E-02  0.647744689469E-02  0.690436795000E-02  0.735934310528E-02  0.784420442912E-02
  0.836090206859E-02  0.891151164479E-02  0.949824208174E-02  0.101234438899E-01  0.107896179260E-01
  0.114994246505E-01  0.122556939058E-01  0.130614352358E-01  0.139198487705E-01  0.148343366944E-01
  0.158085153228E-01  0.168462278031E-01  0.179515574599E-01  0.191288418025E-01  0.203826872056E-01
  0.217179842774E-01  0.231399239221E-01  0.246540140980E-01  0.262660972729E-01  0.279823685645E-01
  0.298093945529E-01  0.317541327381E-01  0.338239516079E-01  0.360266512693E-01  0.383704845788E-01
  0.408641786961E-01  0.435169569602E-01  0.463385609703E-01  0.493392727246E-01  0.525299366426E-01
  0.559219812636E-01  0.595274403754E-01  0.633589732844E-01  0.674298838901E-01  0.717541381711E-01
  0.763463796293E-01  0.812219421673E-01  0.863968597973E-01  0.918878724935E-01  0.977124274006E-01
  0.103888674506E+00  0.110435455764E+00  0.117372286523E+00  0.124719327982E+00  0.132497349216E+00
  0.140727677166E+00  0.149432132804E+00  0.158632951459E+00  0.168352685125E+00  0.178614084311E+00
  0.189439956795E+00  0.200853000384E+00  0.212875606576E+00  0.225529631742E+00  0.238836132280E+00
  0.252815059934E+00  0.267484913332E+00  0.282862341665E+00  0.298961696357E+00  0.315794526585E+00
  0.333369014675E+00  0.351689347607E+00  0.370755021370E+00  0.390560075518E+00  0.411092256247E+00
  0.432332107530E+00  0.454251991514E+00  0.476815041452E+00  0.499974053097E+00  0.523670323675E+00
  0.547832451539E+00  0.572375114278E+00  0.597197848653E+00  0.622183862194E+00  0.647198913800E+00
  0.672090309073E+00  0.696686065571E+00  0.720794313336E+00  0.744203007003E+00  0.766680036970E+00
  0.787973838246E+00  0.807814605904E+00  0.825916234711E+00  0.841979106336E+00  0.855693849025E+00
  0.866746189943E+00  0.874823007307E+00  0.879619665284E+00  0.880848676491E+00  0.878249681443E+00
  0.871600658164E+00  0.860730175058E+00  0.845530373388E+00  0.825970210615E+00  0.802108312715E+00
  0.774104575405E+00  0.742229428150E+00  0.706869443523E+00  0.668527757905E+00  0.627817596228E+00
  0.585447102834E+00  0.542193722961E+00  0.498866617016E+00  0.456256094269E+00  0.415069901027E+00
  0.375857464837E+00  0.338925186070E+00  0.304333659518E+00  0.272092371622E+00  0.242193142945E+00
  0.214606316685E+00  0.189282889851E+00  0.166156801571E+00  0.145147318146E+00  0.126161446197E+00
  0.109096309152E+00  0.938414339427E-01  0.802809113029E-01  0.682954072542E-01  0.577640135028E-01
  0.485659299198E-01  0.405819744731E-01  0.336959166028E-01  0.277956307076E-01  0.227740675912E-01
  0.185300438345E-01  0.149688518276E-01  0.120026962950E-01  0.955096621304E-02  0.754035369749E-02
  0.590483358236E-02  0.458551899705E-02  0.353040935881E-02  0.269404802126E-02  0.203710733822E-02
  0.152591916962E-02  0.113196869950E-02  0.831368836522E-03  0.604331192499E-03  0.434647903783E-03
  0.309196295093E-03  0.217475858201E-03  0.151184371370E-03  0.103837411123E-03  0.704331552333E-04
  0.471623531428E-04  0.311617109071E-04
 ae wavefunction
 -0.302281581190E-05 -0.320328270485E-05 -0.339379303398E-05 -0.359495022339E-05 -0.380739218967E-05
 -0.403179346439E-05 -0.426886743061E-05 -0.451936871386E-05 -0.478409569079E-05 -0.506389318183E-05
 -0.535965526998E-05 -0.567232832907E-05 -0.600291420486E-05 -0.635247361623E-05 -0.672212974225E-05
 -0.711307204925E-05 -0.752656034095E-05 -0.796392906531E-05 -0.842659188575E-05 -0.891604653444E-05
 -0.943387996738E-05 -0.998177384393E-05 -0.105615103390E-04 -0.111749783242E-04 -0.118241799350E-04
 -0.125112375423E-04 -0.132384011657E-04 -0.140080563487E-04 -0.148227325256E-04 -0.156851119188E-04
 -0.165980389894E-04 -0.175645304840E-04 -0.185877861150E-04 -0.196711999117E-04 -0.208183722882E-04
 -0.220331228720E-04 -0.233195041433E-04 -0.246818159360E-04 -0.261246208553E-04 -0.276527606722E-04
 -0.292713737548E-04 -0.309859136050E-04 -0.328021685702E-04 -0.347262828053E-04 -0.367647785650E-04
 -0.389245799108E-04 -0.412130379248E-04 -0.436379575232E-04 -0.462076259764E-04 -0.489308432383E-04
 -0.518169542058E-04 -0.548758830282E-04 -0.581181695980E-04 -0.615550083614E-04 -0.651982895912E-04
 -0.690606432942E-04 -0.731554858967E-04 -0.774970698989E-04 -0.821005366923E-04 -0.869819727151E-04
 -0.921584691838E-04 -0.976481856120E-04 -0.103470417351E-03 -0.109645667420E-03 -0.116195722877E-03
 -0.123143736030E-03 -0.130514310788E-03 -0.138333594459E-03 -0.146629375359E-03 -0.155431186573E-03
 -0.164770416260E-03 -0.174680424909E-03 -0.185196669969E-03 -0.196356838316E-03 -0.208200987039E-03
 -0.220771693056E-03 -0.234114212083E-03 -0.248276647614E-03 -0.263310130321E-03 -0.279269008831E-03
 -0.296211052221E-03 -0.314197665197E-03 -0.333294116605E-03 -0.353569782124E-03 -0.375098401959E-03
 -0.397958354443E-03 -0.422232946533E-03 -0.448010722153E-03 -0.475385789459E-03 -0.504458168204E-03
 -0.535334158246E-03 -0.568126730598E-03 -0.602955942231E-03 -0.639949376036E-03 -0.679242607424E-03
 -0.720979699032E-03 -0.765313725264E-03 -0.812407328201E-03 -0.862433306818E-03 -0.915575241254E-03
 -0.972028154196E-03 -0.103199921135E-02 -0.109570846324E-02 -0.116338963053E-02 -0.123529093531E-02
 -0.131167598069E-02 -0.139282468151E-02 -0.147903424863E-02 -0.157062022981E-02 -0.166791761000E-02
 -0.177128197417E-02 -0.188109073583E-02 -0.199774443458E-02 -0.212166810605E-02 -0.225331272790E-02
 -0.239315674540E-02 -0.254170768055E-02 -0.269950382854E-02 -0.286711604557E-02 -0.304514963228E-02
 -0.323424631688E-02 -0.343508634236E-02 -0.364839066226E-02 -0.387492324933E-02 -0.411549352175E-02
 -0.437095889142E-02 -0.464222743888E-02 -0.493026071957E-02 -0.523607670580E-02 -0.556075286916E-02
 -0.590542940760E-02 -0.627131262155E-02 -0.665967844318E-02 -0.707187612270E-02 -0.750933207531E-02
 -0.797355389212E-02 -0.846613451787E-02 -0.898875659802E-02 -0.954319699686E-02 -0.101313314881E-01
 -0.107551396185E-01 -0.114167097433E-01 -0.121182442340E-01 -0.128620648541E-01 -0.136506182998E-01
 -0.144864819019E-01 -0.153723694796E-01 -0.163111373408E-01 -0.173057904163E-01 -0.183594885166E-01
 -0.194755526965E-01 -0.206574717094E-01 -0.219089085310E-01 -0.232337069299E-01 -0.246358980562E-01
 -0.261197070195E-01 -0.276895594189E-01 -0.293500877874E-01 -0.311061379059E-01 -0.329627749355E-01
 -0.349252893158E-01 -0.369992023638E-01 -0.391902715090E-01 -0.415044950863E-01 -0.439481166060E-01
 -0.465276284084E-01 -0.492497746050E-01 -0.521215531961E-01 -0.551502172479E-01 -0.583432750001E-01
 -0.617084887651E-01 -0.652538724691E-01 -0.689876876730E-01 -0.729184379005E-01 -0.770548610864E-01
 -0.814059199475E-01 -0.859807900648E-01 -0.907888454522E-01 -0.958396413749E-01 -0.101142894167E+00
 -0.106708457784E+00 -0.112546296821E+00 -0.118666455695E+00 -0.125079023716E+00 -0.131794095715E+00
 -0.138821727935E+00 -0.146171888838E+00 -0.153854404527E+00 -0.161878898434E+00 -0.170254724946E+00
 -0.178990896657E+00 -0.188096004911E+00 -0.197578133338E+00 -0.207444764094E+00 -0.217702676536E+00
 -0.228357838085E+00 -0.239415287092E+00 -0.250879007510E+00 -0.262751795302E+00 -0.275035116487E+00
 -0.287728956873E+00 -0.300831663539E+00 -0.314339778273E+00 -0.328247863222E+00 -0.342548319177E+00
 -0.357231196993E+00 -0.372284002838E+00 -0.387691498091E+00 -0.403435494918E+00 -0.419494648737E+00
 -0.435844249017E+00 -0.452456010086E+00 -0.469297863839E+00 -0.486333756486E+00 -0.503523451614E+00
 -0.520822341924E+00 -0.538181271956E+00 -0.555546373853E+00 -0.572858917770E+00 -0.590055178070E+00
 -0.607066315808E+00 -0.623818277972E+00 -0.640231714452E+00 -0.656221915141E+00 -0.671698772081E+00
 -0.686566774565E+00 -0.700725048070E+00 -0.714067449989E+00 -0.726482735619E+00 -0.737854806404E+00
 -0.748063048861E+00 -0.756982767523E+00 -0.764485710125E+00 -0.770440679628E+00 -0.774714227307E+00
 -0.777171422732E+00 -0.777676699403E+00 -0.776094776327E+00 -0.772291656181E+00 -0.766135699454E+00
 -0.757498772347E+00 -0.746257464375E+00 -0.732294370434E+00 -0.715499430796E+00 -0.695771321577E+00
 -0.673018887116E+00 -0.647162604491E+00 -0.618136068801E+00 -0.585887486409E+00 -0.550381161111E+00
 -0.511598956397E+00 -0.469541714535E+00 -0.424230611020E+00 -0.375708420619E+00 -0.324040669105E+00
 -0.269316643222E+00 -0.211650230234E+00 -0.151180558522E+00 -0.880724116594E-01 -0.225163907826E-01
  0.452711969984E-01  0.115048743700E+00  0.186550058410E+00  0.259485422094E+00  0.333543015256E+00
  0.408390772433E+00  0.483678731165E+00  0.559041923331E+00  0.634103752414E+00  0.708479555178E+00
  0.781779701177E+00  0.853611359348E+00  0.923578437286E+00  0.991280429520E+00  0.105631252525E+01
  0.111826965814E+01  0.117675484345E+01  0.123138891523E+01  0.128181838740E+01  0.132772057819E+01
  0.136880702520E+01  0.140482633933E+01  0.143556702160E+01  0.146086027462E+01  0.148058260131E+01
  0.149465792156E+01  0.150305897847E+01  0.150580788994E+01  0.150297580130E+01  0.149468166299E+01
  0.148109021026E+01  0.146240923885E+01  0.143888628566E+01  0.141080481957E+01  0.137848004874E+01
  0.134225444206E+01  0.130249305653E+01  0.125957876048E+01  0.121390742164E+01  0.116588313732E+01
  0.111591356109E+01  0.106440538287E+01  0.101176000838E+01  0.958369482178E+00  0.904612694128E+00
  0.850851907444E+00  0.797429645403E+00  0.744665970970E+00  0.692856185562E+00  0.642268972761E+00
  0.593144996072E+00  0.545695949985E+00  0.500104049722E+00  0.456521932990E+00  0.415072938599E+00
  0.375851723919E+00  0.338925186070E+00  0.304333659518E+00  0.272092371622E+00  0.242193142945E+00
  0.214606316685E+00  0.189282889851E+00  0.166156801571E+00  0.145147318146E+00  0.126161446197E+00
  0.109096309152E+00  0.938414339427E-01  0.802809113029E-01  0.682954072542E-01  0.577640135028E-01
  0.485659299198E-01  0.405819744731E-01  0.336959166028E-01  0.277956307076E-01  0.227740675912E-01
  0.185300438345E-01  0.149688518276E-01  0.120026962950E-01  0.955096621304E-02  0.754035369749E-02
  0.590483358236E-02  0.458551899705E-02  0.353040935881E-02  0.269404802126E-02  0.203710733822E-02
  0.152591916962E-02  0.113196869950E-02  0.831368836522E-03  0.604331192499E-03  0.434647903783E-03
  0.309196295093E-03  0.217475858201E-03  0.151184371370E-03  0.103837411123E-03  0.704331552333E-04
  0.471623531428E-04  0.311617109071E-04
 pseudo wavefunction
 -0.197725627922E-08 -0.210793788825E-08 -0.224725655809E-08 -0.239578313280E-08 -0.255412618486E-08
 -0.272293450877E-08 -0.290289977940E-08 -0.309475938610E-08 -0.329929945401E-08 -0.351735806517E-08
 -0.374982869247E-08 -0.399766386055E-08 -0.426187904868E-08 -0.454355685159E-08 -0.484385141526E-08
 -0.516399316594E-08 -0.550529385170E-08 -0.586915191715E-08 -0.625705823343E-08 -0.667060220693E-08
 -0.711147829167E-08 -0.758149293218E-08 -0.808257196521E-08 -0.861676851062E-08 -0.918627138387E-08
 -0.979341406439E-08 -0.104406842568E-07 -0.111307340842E-07 -0.118663909544E-07 -0.126506691456E-07
 -0.134867821568E-07 -0.143781558745E-07 -0.153284426103E-07 -0.163415360656E-07 -0.174215872858E-07
 -0.185730216686E-07 -0.198005570965E-07 -0.211092232683E-07 -0.225043823068E-07 -0.239917507306E-07
 -0.255774228761E-07 -0.272678958685E-07 -0.290700962433E-07 -0.309914083267E-07 -0.330397044922E-07
 -0.352233774166E-07 -0.375513744681E-07 -0.400332343670E-07 -0.426791262695E-07 -0.454998914345E-07
 -0.485070876445E-07 -0.517130365620E-07 -0.551308742161E-07 -0.587746048256E-07 -0.626591581795E-07
 -0.668004508099E-07 -0.712154512078E-07 -0.759222493494E-07 -0.809401308169E-07 -0.862896558191E-07
 -0.919927434332E-07 -0.980727614156E-07 -0.104554621948E-06 -0.111464883710E-06 -0.118831860701E-06
 -0.126685738252E-06 -0.135058696703E-06 -0.143985043261E-06 -0.153501352562E-06 -0.163646616535E-06
 -0.174462404162E-06 -0.185993031798E-06 -0.198285744752E-06 -0.211390910862E-06 -0.225362226869E-06
 -0.240256938431E-06 -0.256136074668E-06 -0.273064698222E-06 -0.291112171833E-06 -0.310352442537E-06
 -0.330864344646E-06 -0.352731922751E-06 -0.376044776072E-06 -0.400898425569E-06 -0.427394705306E-06
 -0.455642179690E-06 -0.485756588279E-06 -0.517861319985E-06 -0.552087918619E-06 -0.588576621845E-06
 -0.627476935749E-06 -0.668948247385E-06 -0.713160477793E-06 -0.760294778182E-06 -0.810544272109E-06
 -0.864114846714E-06 -0.921225996237E-06 -0.982111721281E-06 -0.104702148750E-05 -0.111622124762E-05
 -0.118999453105E-05 -0.126864360543E-05 -0.135249071497E-05 -0.144187940061E-05 -0.153717590740E-05
 -0.163877068494E-05 -0.174707998685E-05 -0.186254757600E-05 -0.198564654243E-05 -0.211688124132E-05
 -0.225678935905E-05 -0.240594411575E-05 -0.256495661336E-05 -0.273447833885E-05 -0.291520383275E-05
 -0.310787353406E-05 -0.331327681302E-05 -0.353225520429E-05 -0.376570585363E-05 -0.401458519231E-05
 -0.427991285420E-05 -0.456277585159E-05 -0.486433302678E-05 -0.518581979771E-05 -0.552855321698E-05
 -0.589393736494E-05 -0.628346909888E-05 -0.669874418194E-05 -0.714146381653E-05 -0.761344160924E-05
 -0.811661099543E-05 -0.865303315398E-05 -0.922490544448E-05 -0.983457040122E-05 -0.104845253207E-04
 -0.111774324821E-04 -0.119161300413E-04 -0.127036436449E-04 -0.135431988089E-04 -0.144382341150E-04
 -0.153924152767E-04 -0.164096501324E-04 -0.174941046283E-04 -0.186502198533E-04 -0.198827301976E-04
 -0.211966827073E-04 -0.225974577148E-04 -0.240907908267E-04 -0.256827963612E-04 -0.273799923274E-04
 -0.291893270488E-04 -0.311182075391E-04 -0.331745297439E-04 -0.353667107718E-04 -0.377037232435E-04
 -0.401951318985E-04 -0.428511326065E-04 -0.456825939397E-04 -0.487011014748E-04 -0.519190049996E-04
 -0.553494688168E-04 -0.590065253423E-04 -0.629051322162E-04 -0.670612331503E-04 -0.714918227569E-04
 -0.762150156153E-04 -0.812501198497E-04 -0.866177155095E-04 -0.923397380612E-04 -0.984395673204E-04
 -0.104942122172E-03 -0.111873961453E-03 -0.119263391380E-03 -0.127140579959E-03 -0.135537678794E-03
 -0.144488952794E-03 -0.154030918246E-03 -0.164202489803E-03 -0.175045136946E-03 -0.186603050492E-03
 -0.198923319801E-03 -0.212056121322E-03 -0.226054919199E-03 -0.240976678657E-03 -0.256882092965E-03
 -0.273835824796E-03 -0.291906762845E-03 -0.311168294635E-03 -0.331698596462E-03 -0.353580941497E-03
 -0.376904027103E-03 -0.401762322492E-03 -0.428256437868E-03 -0.456493516301E-03 -0.486587649589E-03
 -0.518660319432E-03 -0.552840865309E-03 -0.589266980477E-03 -0.628085237575E-03 -0.669451645355E-03
 -0.713532238110E-03 -0.760503699398E-03 -0.810554021706E-03 -0.863883203693E-03 -0.920703986705E-03
 -0.981242632207E-03 -0.104573974180E-02 -0.111445112146E-02 -0.118764869149E-02 -0.126562144385E-02
 -0.134867644795E-02 -0.143713990653E-02 -0.153135826230E-02 -0.163169935640E-02 -0.173855363915E-02
 -0.185233543328E-02 -0.197348424932E-02 -0.210246615249E-02 -0.223977517974E-02 -0.238593480466E-02
 -0.254149944759E-02 -0.270705602668E-02 -0.288322554497E-02 -0.307066470687E-02 -0.327006755592E-02
 -0.348216712382E-02 -0.370773707866E-02 -0.394759335757E-02 -0.420259576642E-02 -0.447364952559E-02
 -0.476170673733E-02 -0.506776774570E-02 -0.539288235500E-02 -0.573815086734E-02 -0.610472489291E-02
 -0.649380787971E-02 -0.690665530064E-02 -0.734457442662E-02 -0.780892360342E-02 -0.830111093774E-02
 -0.882259228420E-02 -0.937486840921E-02 -0.995948119038E-02 -0.105780086899E-01 -0.112320589185E-01
 -0.119232620817E-01 -0.126532610713E-01 -0.134236999358E-01 -0.142362100271E-01 -0.150923934827E-01
 -0.159938036602E-01 -0.169419220948E-01 -0.179381314961E-01 -0.189836842448E-01 -0.200796657893E-01
 -0.212269522694E-01 -0.224261616268E-01 -0.236775973764E-01 -0.249811841327E-01 -0.263363938912E-01
 -0.277421619710E-01 -0.291967914255E-01 -0.306978446250E-01 -0.322420206111E-01 -0.338250167206E-01
 -0.354413728769E-01 -0.370842968557E-01 -0.387454687514E-01 -0.404148228107E-01 -0.420803047641E-01
 -0.437276027823E-01 -0.453398502356E-01 -0.468972985316E-01 -0.483769584915E-01 -0.497522089976E-01
 -0.509923720358E-01 -0.520622537913E-01 -0.529216521654E-01 -0.535248319933E-01 -0.538199704111E-01
 -0.537485762674E-01 -0.532448892694E-01 -0.522352667294E-01 -0.506375683969E-01 -0.483605529743E-01
 -0.453033035694E-01 -0.413547035813E-01 -0.363929893804E-01 -0.302854116380E-01 -0.228880432751E-01
 -0.140457786771E-01 -0.359257595163E-02  0.864799858851E-02  0.228618571360E-01  0.392430347072E-01
  0.579918114189E-01  0.793122286750E-01  0.103408913409E+00  0.130483126506E+00  0.160727958738E+00
  0.194322611737E+00  0.231425724773E+00  0.272167742665E+00  0.316642368660E+00  0.364897211099E+00
  0.416923816747E+00  0.472647388957E+00  0.531916616593E+00  0.594494189960E+00  0.660048750566E+00
  0.728149207238E+00  0.798262542461E+00  0.869756415018E+00  0.941908016414E+00  0.101392072954E+01
  0.108495013013E+01  0.115414193888E+01  0.122081937628E+01  0.128461348106E+01  0.134518333632E+01
  0.140218000704E+01  0.145524528337E+01  0.150401087935E+01  0.154809832928E+01  0.158711974818E+01
  0.000000000000E+00  0.000000000000E+00  0.000000000000E+00  0.000000000000E+00  0.000000000000E+00
  0.000000000000E+00  0.000000000000E+00  0.000000000000E+00  0.000000000000E+00  0.000000000000E+00
  0.000000000000E+00  0.000000000000E+00  0.000000000000E+00  0.000000000000E+00  0.000000000000E+00
  0.000000000000E+00  0.000000000000E+00  0.000000000000E+00  0.000000000000E+00  0.000000000000E+00
  0.000000000000E+00  0.000000000000E+00  0.000000000000E+00  0.000000000000E+00  0.000000000000E+00
  0.000000000000E+00  0.000000000000E+00  0.000000000000E+00  0.000000000000E+00  0.000000000000E+00
  0.000000000000E+00  0.000000000000E+00
 ae wavefunction
  0.156897046238E-05  0.166264070087E-05  0.176152391881E-05  0.186593332021E-05  0.197620001222E-05
  0.209267410681E-05  0.221572588160E-05  0.234574702090E-05  0.248315191782E-05  0.262837907189E-05
  0.278189255210E-05  0.294418356877E-05  0.311577212465E-05  0.329720878028E-05  0.348907651587E-05
  0.369199271774E-05  0.390661128050E-05  0.413362484248E-05  0.437376715847E-05  0.462781561875E-05
  0.489659392483E-05  0.518097493359E-05  0.548188367408E-05  0.580030055576E-05  0.613726477725E-05
  0.649387794487E-05  0.687130792040E-05  0.727079290888E-05  0.769364580111E-05  0.814125879207E-05
  0.861510828591E-05  0.911676011106E-05  0.964787506351E-05  0.102102147987E-04  0.108056480952E-04
  0.114361575137E-04  0.121038464758E-04  0.128109467914E-04  0.135598266608E-04  0.143529991840E-04
  0.151931314087E-04  0.160830539518E-04  0.170257712303E-04  0.180244723418E-04  0.190825426351E-04
  0.202035760152E-04  0.213913880309E-04  0.226500297915E-04  0.239838027705E-04  0.253972745480E-04
  0.268952955544E-04  0.284830168789E-04  0.301659092099E-04  0.319497829792E-04  0.338408097849E-04
  0.358455451807E-04  0.379709529085E-04  0.402244306706E-04  0.426138375450E-04  0.451475231320E-04
  0.478343585578E-04  0.506837694435E-04  0.537057709619E-04  0.569110051200E-04  0.603107803997E-04
  0.639171139090E-04  0.677427762025E-04  0.718013389290E-04  0.761072254928E-04  0.806757649132E-04
  0.855232490745E-04  0.906669935884E-04  0.961254024812E-04  0.101918036951E-03  0.108065688441E-03
  0.114590456294E-03  0.121515830268E-03  0.128866778239E-03  0.136669839320E-03  0.144953222880E-03
  0.153746913646E-03  0.163082783393E-03  0.172994709544E-03  0.183518701139E-03  0.194693032587E-03
  0.206558385679E-03  0.219158000356E-03  0.232537834757E-03  0.246746735079E-03  0.261836615867E-03
  0.277862651285E-03  0.294883478079E-03  0.312961410876E-03  0.332162670531E-03  0.352557626308E-03
  0.374221052644E-03  0.397232401398E-03  0.421676090380E-03  0.447641809167E-03  0.475224843109E-03
  0.504526416602E-03  0.535654056637E-03  0.568721977811E-03  0.603851489912E-03  0.641171429356E-03
  0.680818615721E-03  0.722938334766E-03  0.767684849293E-03  0.815221939350E-03  0.865723473283E-03
  0.919374011225E-03  0.976369442689E-03  0.103691765996E-02  0.110123926909E-02  0.116956834028E-02
  0.124215319967E-02  0.131925726437E-02  0.140115992286E-02  0.148815746279E-02  0.158056404836E-02
  0.167871274943E-02  0.178295662465E-02  0.189366986089E-02  0.201124897121E-02  0.213611405384E-02
  0.226871011446E-02  0.240950845417E-02  0.255900812552E-02  0.271773745902E-02  0.288625566238E-02
  0.306515449478E-02  0.325506001843E-02  0.345663442950E-02  0.367057797045E-02  0.389763092561E-02
  0.413857570169E-02  0.439423899478E-02  0.466549404500E-02  0.495326297970E-02  0.525851924608E-02
  0.558229013307E-02  0.592565938259E-02  0.628976988930E-02  0.667582648759E-02  0.708509882378E-02
  0.751892431108E-02  0.797871116352E-02  0.846594150465E-02  0.898217454556E-02  0.952904982561E-02
  0.101082905081E-01  0.107217067217E-01  0.113711989372E-01  0.120587613665E-01  0.127864853704E-01
  0.135565628592E-01  0.143712896667E-01  0.152330688775E-01  0.161444140851E-01  0.171079525530E-01
  0.181264282519E-01  0.192027047381E-01  0.203397678409E-01  0.215407281151E-01  0.228088230197E-01
  0.241474187717E-01  0.255600118248E-01  0.270502299146E-01  0.286218326103E-01  0.302787113033E-01
  0.320248885613E-01  0.338645167688E-01  0.358018759692E-01  0.378413708171E-01  0.399875265441E-01
  0.422449838324E-01  0.446184924866E-01  0.471129037854E-01  0.497331613872E-01  0.524842906600E-01
  0.553713862955E-01  0.583995980629E-01  0.615741145512E-01  0.649001447432E-01  0.683828972583E-01
  0.720275570976E-01  0.758392597197E-01  0.798230622756E-01  0.839839118263E-01  0.883266103682E-01
  0.928557764953E-01  0.975758035263E-01  0.102490813934E+00  0.107604609926E+00  0.112920620019E+00
  0.118441841505E+00  0.124170778662E+00  0.130109376650E+00  0.136258951011E+00  0.142620112751E+00
  0.149192688990E+00  0.155975639246E+00  0.162966967416E+00  0.170163629622E+00  0.177561438105E+00
  0.185154961453E+00  0.192937421501E+00  0.200900587339E+00  0.209034666967E+00  0.217328197225E+00
  0.225767932755E+00  0.234338734876E+00  0.243023461367E+00  0.251802858283E+00  0.260655455009E+00
  0.269557463800E+00  0.278482685042E+00  0.287402419339E+00  0.296285387303E+00  0.305097657715E+00
  0.313802584358E+00  0.322360751897E+00  0.330729931358E+00  0.338865046623E+00  0.346718154579E+00
  0.354238443188E+00  0.361372253264E+00  0.368063130835E+00  0.374251917245E+00  0.379876883372E+00
  0.384873912543E+00  0.389176734076E+00  0.392717206772E+00  0.395425649855E+00  0.397231218662E+00
  0.398062323279E+00  0.397847089811E+00  0.396513864803E+00  0.393991763516E+00  0.390211262085E+00
  0.385104832825E+00  0.378607620931E+00  0.370658160269E+00  0.361199125209E+00  0.350178115014E+00
  0.337548466616E+00  0.323270091020E+00  0.307310327596E+00  0.289644809759E+00  0.270258334266E+00
  0.249145725295E+00  0.226312683120E+00  0.201776605879E+00  0.175567371616E+00  0.147728066484E+00
  0.118315644050E+00  0.874014998579E-01  0.550719453077E-01  0.214285652391E-01 -0.134115553324E-01
 -0.493157486060E-01 -0.861358377241E-01 -0.123708379396E+00 -0.161855090988E+00 -0.200383484471E+00
 -0.239087739225E+00 -0.277749852179E+00 -0.316141091012E+00 -0.354023717091E+00 -0.391152811340E+00
 -0.427277855479E+00 -0.462143615629E+00 -0.495490100086E+00 -0.527052033630E+00 -0.556559129343E+00
 -0.583738553427E+00 -0.608319684725E+00 -0.630039580180E+00 -0.648647428465E+00 -0.663907589693E+00
 -0.675601794882E+00 -0.683531109202E+00 -0.687517918356E+00 -0.687407936789E+00 -0.683072116140E+00
 -0.674408306794E+00 -0.661342552852E+00 -0.643829948743E+00 -0.621855038527E+00 -0.595431774220E+00
 -0.564603074901E+00 -0.529440036144E+00 -0.490040845043E+00 -0.446529453232E+00 -0.399054059266E+00
 -0.347785446492E+00 -0.292915218726E+00 -0.234653973104E+00 -0.173229441317E+00 -0.108884631315E+00
 -0.418759944668E-01  0.275283561305E-01  0.990503524367E-01  0.172403578559E+00  0.247294753125E+00
  0.323425061492E+00  0.400491315295E+00  0.478186917637E+00  0.556202626301E+00  0.634227110017E+00
  0.711947308499E+00  0.789048613373E+00  0.865214888790E+00  0.940128344258E+00  0.101346925589E+01
  0.108491551156E+01  0.115414193888E+01  0.122081937628E+01  0.128461348106E+01  0.134518333632E+01
  0.140218000704E+01  0.145524528337E+01  0.150401087935E+01  0.154809832928E+01  0.158711974818E+01
  0.000000000000E+00  0.000000000000E+00  0.000000000000E+00  0.000000000000E+00  0.000000000000E+00
  0.000000000000E+00  0.000000000000E+00  0.000000000000E+00  0.000000000000E+00  0.000000000000E+00
  0.000000000000E+00  0.000000000000E+00  0.000000000000E+00  0.000000000000E+00  0.000000000000E+00
  0.000000000000E+00  0.000000000000E+00  0.000000000000E+00  0.000000000000E+00  0.000000000000E+00
  0.000000000000E+00  0.000000000000E+00  0.000000000000E+00  0.000000000000E+00  0.000000000000E+00
  0.000000000000E+00  0.000000000000E+00  0.000000000000E+00  0.000000000000E+00  0.000000000000E+00
  0.000000000000E+00  0.000000000000E+00
 pseudo wavefunction
  0.432642158943E-12  0.476234777803E-12  0.524219748115E-12  0.577039639098E-12  0.635181612828E-12
  0.699181917376E-12  0.769630832666E-12  0.847178114674E-12  0.932538988178E-12  0.102650074334E-11
  0.112992999692E-11  0.124378068519E-11  0.136910286215E-11  0.150705238424E-11  0.165890157091E-11
  0.182605093933E-11  0.201004212146E-11  0.221257208266E-11  0.243550877292E-11  0.268090835510E-11
  0.295103416911E-11  0.324837760687E-11  0.357568109060E-11  0.393596336639E-11  0.433254734636E-11
  0.476909075613E-11  0.524961987029E-11  0.577856664709E-11  0.636080960469E-11  0.700171881615E-11
  0.770720543804E-11  0.848377622946E-11  0.933859356443E-11  0.102795414910E-10  0.113152984464E-10
  0.124554172992E-10  0.137104134556E-10  0.150918618444E-10  0.166125036732E-10  0.182863639417E-10
  0.201288807950E-10  0.221570479112E-10  0.243895712352E-10  0.268470415050E-10  0.295521241618E-10
  0.325297683949E-10  0.358074372502E-10  0.394153609237E-10  0.433868155769E-10  0.477584302453E-10
  0.525705246710E-10  0.578674811742E-10  0.636981539948E-10  0.701163198787E-10  0.771811740646E-10
  0.849578762455E-10  0.935181515418E-10  0.102940952027E-09  0.113313184908E-09  0.124730514076E-09
  0.137298242421E-09  0.151132283051E-09  0.166360228359E-09  0.183122526824E-09  0.201573778370E-09
  0.221884160258E-09  0.244240996632E-09  0.268850486232E-09  0.295939604170E-09  0.325758195337E-09
  0.358581278738E-09  0.394711584008E-09  0.434482343501E-09  0.478260365716E-09  0.526449418383E-09
  0.579493952441E-09  0.637883201223E-09  0.702155692685E-09  0.772904216265E-09  0.850781290212E-09
  0.936505179780E-09  0.103086652182E-08  0.113473561685E-08  0.124907045586E-08  0.137492555588E-08
  0.151346168583E-08  0.166595657233E-08  0.183381668413E-08  0.201859020405E-08  0.222198130787E-08
  0.244586588191E-08  0.269230882436E-08  0.296358308982E-08  0.326219065268E-08  0.359088558283E-08
  0.395269944634E-08  0.435096926551E-08  0.478936829607E-08  0.527193990541E-08  0.580313486438E-08
  0.638785239637E-08  0.703148536253E-08  0.773996999961E-08  0.851984066929E-08  0.937829012387E-08
  0.103232358441E-07  0.113633930611E-07  0.125083551355E-07  0.137686820355E-07  0.151559977294E-07
  0.166830973912E-07  0.183640654076E-07  0.202144052751E-07  0.222511825844E-07  0.244931824118E-07
  0.269610825680E-07  0.296776443027E-07  0.326679222235E-07  0.359594953644E-07  0.395827215363E-07
  0.435710173026E-07  0.479611661643E-07  0.527936577945E-07  0.581130614522E-07  0.639684370167E-07
  0.704137874353E-07  0.775085567544E-07  0.853181783265E-07  0.939146782496E-07  0.103377339601E-06
  0.113793433591E-06  0.125259024378E-06  0.137879854966E-06  0.151772322350E-06  0.167064550904E-06
  0.183897573901E-06  0.202426634069E-06  0.222822615156E-06  0.245273617717E-06  0.269986693647E-06
  0.297189755430E-06  0.327133677735E-06  0.360094610704E-06  0.396376526261E-06  0.436314020918E-06
  0.480275400900E-06  0.528666078025E-06  0.581932307629E-06  0.640565302985E-06  0.705105764124E-06
  0.776148862787E-06  0.854349729427E-06  0.940429492821E-06  0.103518192791E-05  0.113948077312E-05
  0.125428778454E-05  0.138066160112E-05  0.151976750255E-05  0.167288814966E-05  0.184143540619E-05
  0.202696335072E-05  0.223118259870E-05  0.245597606608E-05  0.270341631989E-05  0.297578467516E-05
  0.327559221397E-05  0.360560291993E-05  0.396885914065E-05  0.436870961257E-05  0.480884030542E-05
  0.529330836990E-05  0.582657950047E-05  0.641356905625E-05  0.705968731777E-05  0.777088929482E-05
  0.855372954249E-05  0.941542248827E-05  0.103639088233E-04  0.114079285664E-04  0.125571014700E-04
  0.138220155052E-04  0.152143242343E-04  0.167468539638E-04  0.184337216559E-04  0.202904646771E-04
  0.223341835687E-04  0.245836991420E-04  0.270597253323E-04  0.297850593851E-04  0.327847911093E-04
  0.360865330985E-04  0.397206740167E-04  0.437206572458E-04  0.481232874254E-04  0.529690676627E-04
  0.583025704641E-04  0.641728457441E-04  0.706338695944E-04  0.777450378597E-04  0.855717089644E-04
  0.941858008684E-04  0.103666447510E-03  0.114100720610E-03  0.125584423300E-03  0.138222962635E-03
  0.152132308775E-03  0.167440049332E-03  0.184286548234E-03  0.202826219325E-03  0.223228925918E-03
  0.245681518585E-03  0.270389524620E-03  0.297579003912E-03  0.327498587316E-03  0.360421715150E-03
  0.396649095067E-03  0.436511400345E-03  0.480372231575E-03  0.528631366822E-03  0.581728327621E-03
  0.640146290618E-03  0.704416377345E-03  0.775122357476E-03  0.852905804008E-03  0.938471742128E-03
  0.103259483711E-02  0.113612617037E-02  0.125000065694E-02  0.137524516182E-02  0.151298737755E-02
  0.166446552975E-02  0.183103898298E-02  0.201419982440E-02  0.221558550802E-02  0.243699264881E-02
  0.268039206099E-02  0.294794514156E-02  0.324202170575E-02  0.356521938711E-02  0.392038472093E-02
  0.431063603489E-02  0.473938827596E-02  0.521037990675E-02  0.572770200789E-02  0.629582972481E-02
  0.691965619777E-02  0.760452911217E-02  0.835629000170E-02  0.918131642921E-02  0.100865671584E-01
  0.110796304132E-01  0.121687752983E-01  0.133630064267E-01  0.146721217599E-01  0.161067736202E-01
  0.176785327754E-01  0.193999554210E-01  0.212846527989E-01  0.233473630807E-01  0.256040250181E-01
  0.280718527064E-01  0.307694106277E-01  0.337166879275E-01  0.369351706266E-01  0.404479101868E-01
  0.442795865092E-01  0.484565630687E-01  0.530069314470E-01  0.579605420399E-01  0.633490171581E-01
  0.692057421277E-01  0.755658293161E-01  0.824660492691E-01  0.899447223437E-01  0.980415633697E-01
  0.106797470986E+00  0.116254252390E+00  0.126454273330E+00  0.137440022338E+00  0.149253577401E+00
  0.161935962704E+00  0.175526382684E+00  0.190061320612E+00  0.205573489350E+00  0.222090622982E+00
  0.239634099828E+00  0.258217390199E+00  0.277844326285E+00  0.298507197143E+00  0.320184679072E+00
  0.342839621074E+00  0.366416716922E+00  0.390840109783E+00  0.416010992640E+00  0.441805288085E+00
  0.468071514188E+00  0.494628969007E+00  0.521266394070E+00  0.547741305811E+00  0.573780211837E+00
  0.599079953498E+00  0.623310434272E+00  0.646119000572E+00  0.667136732057E+00  0.685986865768E+00
  0.702295514219E+00  0.715704733319E+00  0.725887842157E+00  0.732566684660E+00  0.735530245872E+00
  0.734653690135E+00  0.729916478233E+00  0.721417759252E+00  0.709386748353E+00  0.694185340797E+00
  0.676299846249E+00  0.656318554192E+00  0.634891989919E+00  0.612673347080E+00  0.590237862635E+00
  0.567982009090E+00  0.546027122452E+00  0.524373206264E+00  0.503039661379E+00  0.482043376218E+00
  0.461398397685E+00  0.441116632630E+00  0.421208520458E+00  0.401683631443E+00  0.382551176226E+00
  0.363820418994E+00  0.345500998414E+00  0.327603162867E+00  0.310137920859E+00  0.293117104626E+00
  0.276553340676E+00  0.260459916935E+00  0.244850543860E+00  0.229739009933E+00  0.215138748120E+00
  0.201062340679E+00  0.187521002913E+00  0.174524091973E+00  0.162078686006E+00  0.150189272245E+00
  0.138857567872E+00  0.128082485533E+00  0.117860234098E+00  0.108184539127E+00  0.990469532272E-01
  0.904372212523E-01  0.823436627579E-01  0.747535349602E-01  0.676533441152E-01  0.610290813926E-01
  0.548663704005E-01  0.491505261585E-01
 ae wavefunction
  0.170389553969E-09  0.186574615583E-09  0.204132535830E-09  0.223193152576E-09  0.243897585553E-09
  0.266399308664E-09  0.290865316454E-09  0.317477398390E-09  0.346433524681E-09  0.377949362860E-09
  0.412259927278E-09  0.449621385604E-09  0.490313026501E-09  0.534639412977E-09  0.582932731035E-09
  0.635555359516E-09  0.692902676561E-09  0.755406128572E-09  0.823536585333E-09  0.897808008299E-09
  0.978781462624E-09  0.106706950625E-08  0.116334098937E-08  0.126832630668E-08  0.138282314448E-08
  0.150770276829E-08  0.164391690536E-08  0.179250527743E-08  0.195460384567E-08  0.213145383853E-08
  0.232441163424E-08  0.253495958271E-08  0.276471785628E-08  0.301545742805E-08  0.328911428701E-08
  0.358780500879E-08  0.391384381309E-08  0.426976125140E-08  0.465832468233E-08  0.508256070795E-08
  0.554577976063E-08  0.605160304896E-08  0.660399209142E-08  0.720728108910E-08  0.786621241293E-08
  0.858597550811E-08  0.937224954876E-08  0.102312502058E-07  0.111697809317E-07  0.121952891983E-07
  0.133159281739E-07  0.145406243681E-07  0.158791518275E-07  0.173422135225E-07  0.189415306225E-07
  0.206899404429E-07  0.226015038951E-07  0.246916233787E-07  0.269771721431E-07  0.294766362216E-07
  0.322102701905E-07  0.352002680958E-07  0.384709510298E-07  0.420489730013E-07  0.459635468788E-07
  0.502466923823E-07  0.549335082892E-07  0.600624712115E-07  0.656757635689E-07  0.718196336155E-07
  0.785447906526E-07  0.859068388978E-07  0.939667537867E-07  0.102791404879E-06  0.112454129934E-06
  0.123035365184E-06  0.134623337282E-06  0.147314823086E-06  0.161215983676E-06  0.176443280284E-06
  0.193124479722E-06  0.211399758419E-06  0.231422914547E-06  0.253362698918E-06  0.277404276217E-06
  0.303750829356E-06  0.332625320986E-06  0.364272427511E-06  0.398960662433E-06  0.436984707712E-06
  0.478667973161E-06  0.524365406483E-06  0.574466578192E-06  0.629399068303E-06  0.689632184275E-06
  0.755681042335E-06  0.828111047840E-06  0.907542813162E-06  0.994657556008E-06  0.109020302456E-05
  0.119500000086E-05  0.130994943830E-05  0.143604029495E-05  0.157435812988E-05  0.172609453655E-05
  0.189255749394E-05  0.207518272437E-05  0.227554615483E-05  0.249537758840E-05  0.273657570213E-05
  0.300122449895E-05  0.329161135326E-05  0.361024680301E-05  0.395988625559E-05  0.434355379047E-05
  0.476456825897E-05  0.522657190004E-05  0.573356171186E-05  0.628992384059E-05  0.690047127353E-05
  0.757048514848E-05  0.830576002237E-05  0.911265347155E-05  0.999814043287E-05  0.109698727298E-04
  0.120362442710E-04  0.132064624509E-04  0.144906263322E-04  0.158998122411E-04  0.174461674639E-04
  0.191430127957E-04  0.210049547587E-04  0.230480083810E-04  0.252897315059E-04  0.277493716878E-04
  0.304480268229E-04  0.334088207654E-04  0.366570952864E-04  0.402206198539E-04  0.441298208362E-04
  0.484180318704E-04  0.531217672874E-04  0.582810206423E-04  0.639395905731E-04  0.701454363968E-04
  0.769510660511E-04  0.844139592048E-04  0.925970285911E-04  0.101569122864E-03  0.111405574547E-03
  0.122188796918E-03  0.134008933991E-03  0.146964568069E-03  0.161163489681E-03  0.176723535107E-03
  0.193773497064E-03  0.212454114541E-03  0.232919148228E-03  0.255336548426E-03  0.279889722833E-03
  0.306778912103E-03  0.336222681633E-03  0.368459538578E-03  0.403749683714E-03  0.442376908371E-03
  0.484650647303E-03  0.530908199026E-03  0.581517125858E-03  0.636877846560E-03  0.697426435245E-03
  0.763637640901E-03  0.836028142644E-03  0.915160056543E-03  0.100164471057E-02  0.109614670497E-02
  0.119938827604E-02  0.131215398188E-02  0.143529572948E-02  0.156973816281E-02  0.171648443226E-02
  0.187662236615E-02  0.205133106509E-02  0.224188794038E-02  0.244967621764E-02  0.267619292617E-02
  0.292305739502E-02  0.319202027510E-02  0.348497310655E-02  0.380395844892E-02  0.415118059010E-02
  0.452901684829E-02  0.494002947839E-02  0.538697819172E-02  0.587283329415E-02  0.640078944391E-02
  0.697428002551E-02  0.759699213085E-02  0.827288213242E-02  0.900619182638E-02  0.980146511572E-02
  0.106635651945E-01  0.115976921850E-01  0.126094011679E-01  0.137046205349E-01  0.148896705798E-01
  0.161712822297E-01  0.175566158050E-01  0.190532796799E-01  0.206693486988E-01  0.224133821904E-01
  0.242944414019E-01  0.263221061600E-01  0.285064905509E-01  0.308582573898E-01  0.333886312327E-01
  0.361094096526E-01  0.390329724643E-01  0.421722885208E-01  0.455409196182E-01  0.491530209387E-01
  0.530233373133E-01  0.571671944606E-01  0.616004842493E-01  0.663396430147E-01  0.714016220618E-01
  0.768038497234E-01  0.825641846766E-01  0.887008606071E-01  0.952324226355E-01  0.102177656103E+00
  0.109555508240E+00  0.117385002892E+00  0.125685147881E+00  0.134474834064E+00  0.143772724863E+00
  0.153597135161E+00  0.163965898873E+00  0.174896224912E+00  0.186404541609E+00  0.198506329760E+00
  0.211215944513E+00  0.224546426299E+00  0.238509301126E+00  0.253114370678E+00  0.268369492967E+00
  0.284280354561E+00  0.300850235888E+00  0.318079771439E+00  0.335966707332E+00  0.354505659007E+00
  0.373687872540E+00  0.393500993378E+00  0.413928846858E+00  0.434951235115E+00  0.456543755108E+00
  0.478677642409E+00  0.501319644900E+00  0.524431929915E+00  0.547972027491E+00  0.571892812016E+00
  0.596142525001E+00  0.620664844425E+00  0.645399012050E+00  0.670280040463E+00  0.695239035799E+00
  0.720203685025E+00  0.745098955424E+00  0.769848010374E+00  0.794373224381E+00  0.818596957336E+00
  0.842441512868E+00  0.865827668834E+00  0.888671697311E+00  0.910881901794E+00  0.932356823272E+00
  0.952987049841E+00  0.972660288847E+00  0.991266936405E+00  0.100870364084E+01  0.102487460258E+01
  0.103969174266E+01  0.105307475295E+01  0.106495144360E+01  0.107525840555E+01  0.108394183878E+01
  0.109095836568E+01  0.109627568416E+01  0.109987297266E+01  0.110174102144E+01  0.110188210148E+01
  0.110030960921E+01  0.109704752806E+01  0.109212975126E+01  0.108559930356E+01  0.107750749652E+01
  0.106791304535E+01  0.105688116971E+01  0.104448270126E+01  0.103079320538E+01  0.101589213332E+01
  0.999862004785E+00  0.982787625141E+00  0.964755334962E+00  0.945852290494E+00  0.926165772949E+00
  0.905782526555E+00  0.884788132325E+00  0.863266417369E+00  0.841298921912E+00  0.818964426922E+00
  0.796338558642E+00  0.773493474609E+00  0.750497628513E+00  0.727415600778E+00  0.704307971499E+00
  0.681231206827E+00  0.658237532165E+00  0.635374778311E+00  0.612686209799E+00  0.590210371383E+00
  0.567981008274E+00  0.546027122452E+00  0.524373206264E+00  0.503039661379E+00  0.482043376218E+00
  0.461398397685E+00  0.441116632630E+00  0.421208520458E+00  0.401683631443E+00  0.382551176226E+00
  0.363820418994E+00  0.345500998414E+00  0.327603162867E+00  0.310137920859E+00  0.293117104626E+00
  0.276553340676E+00  0.260459916935E+00  0.244850543860E+00  0.229739009933E+00  0.215138748120E+00
  0.201062340679E+00  0.187521002913E+00  0.174524091973E+00  0.162078686006E+00  0.150189272245E+00
  0.138857567872E+00  0.128082485533E+00  0.117860234098E+00  0.108184539127E+00  0.990469532272E-01
  0.904372212523E-01  0.823436627579E-01  0.747535349602E-01  0.676533441152E-01  0.610290813926E-01
  0.548663704005E-01  0.491505261585E-01
 pseudo wavefunction
  0.434927395624E-12  0.478750272797E-12  0.526988702034E-12  0.580087590226E-12  0.638536672664E-12
  0.702875029907E-12  0.773696059767E-12  0.851652950261E-12  0.937464704021E-12  0.103192276971E-11
  0.113589834161E-11  0.125035039472E-11  0.137633452949E-11  0.151501270763E-11  0.166766396906E-11
  0.183569622854E-11  0.202065926103E-11  0.222425899532E-11  0.244837324800E-11  0.269506904271E-11
  0.296662167442E-11  0.326553569471E-11  0.359456801140E-11  0.395675331577E-11  0.435543207171E-11
  0.479428132514E-11  0.527734861764E-11  0.580908931728E-11  0.639440771080E-11  0.703870223629E-11
  0.774791527332E-11  0.852858795004E-11  0.938792047251E-11  0.103338385327E-10  0.113750664079E-10
  0.125212074253E-10  0.137828325341E-10  0.151715778025E-10  0.167002517380E-10  0.183829534208E-10
  0.202352025413E-10  0.222740825391E-10  0.245183981650E-10  0.269888489184E-10  0.297082199607E-10
  0.327015922643E-10  0.359965739363E-10  0.396235548504E-10  0.436159869349E-10  0.480106927021E-10
  0.528482048653E-10  0.581731401749E-10  0.640346109220E-10  0.704866779046E-10  0.775888490345E-10
  0.854066281827E-10  0.940121193263E-10  0.103484691569E-09  0.113911711168E-09  0.125389347317E-09
  0.138023459125E-09  0.151930571960E-09  0.167238952169E-09  0.184089790091E-09  0.202638502258E-09
  0.223056164821E-09  0.245531091388E-09  0.270270569857E-09  0.297502774242E-09  0.327478869139E-09
  0.360475326230E-09  0.396796474196E-09  0.436777305559E-09  0.480786566338E-09  0.529230157009E-09
  0.582554876150E-09  0.641252541283E-09  0.705864524932E-09  0.776986747725E-09  0.855275174597E-09
  0.941451864778E-09  0.103631163138E-08  0.114072937197E-08  0.125566813779E-08  0.138218801602E-08
  0.152145590695E-08  0.167475628636E-08  0.184350305227E-08  0.202925256528E-08  0.223371800297E-08
  0.245878516052E-08  0.270652984338E-08  0.297923701241E-08  0.327942185809E-08  0.360985299804E-08
  0.397357801189E-08  0.437395154910E-08  0.481466626865E-08  0.529978689635E-08  0.583378771357E-08
  0.642159382319E-08  0.706862657355E-08  0.778085355904E-08  0.856484365868E-08  0.942782762021E-08
  0.103777647484E-07  0.114234163127E-07  0.125744263511E-07  0.138414106156E-07  0.152360544797E-07
  0.167712207097E-07  0.184610680959E-07  0.203211820356E-07  0.223687182733E-07  0.246225611238E-07
  0.271034976361E-07  0.298344093062E-07  0.328404831051E-07  0.361494437685E-07  0.397918094913E-07
  0.438011733834E-07  0.482145132828E-07  0.530725327842E-07  0.584200366252E-07  0.643063438950E-07
  0.707857428722E-07  0.779179916898E-07  0.857688694402E-07  0.944107828048E-07  0.103923433800E-06
  0.114394554796E-06  0.125920717592E-06  0.138608223992E-06  0.152574086112E-06  0.167947105448E-06
  0.184869060639E-06  0.203496014910E-06  0.223999755207E-06  0.246569376327E-06  0.271413024623E-06
  0.298759817367E-06  0.328861955467E-06  0.361997048997E-06  0.398470676999E-06  0.438619205127E-06
  0.482812887113E-06  0.531459278638E-06  0.585006995068E-06  0.643949847674E-06  0.708831396468E-06
  0.780249961580E-06  0.858864139368E-06  0.945398874070E-06  0.104065214092E-05  0.114550230233E-05
  0.126091620480E-05  0.138795809124E-05  0.152779941072E-05  0.168172961591E-05  0.185116804777E-05
  0.203767701670E-05  0.224297620081E-05  0.246895849354E-05  0.271770744662E-05  0.299151646893E-05
  0.329290995763E-05  0.362466655612E-05  0.398984475267E-05  0.439181105498E-05  0.483427099973E-05
  0.532130328212E-05  0.585739731886E-05  0.644749458980E-05  0.709703413771E-05  0.781200264398E-05
  0.859898953976E-05  0.946524765825E-05  0.104187599843E-04  0.114683131132E-04  0.126235780924E-04
  0.138951993853E-04  0.152948927739E-04  0.168355530938E-04  0.185313727891E-04  0.203979723695E-04
  0.224525439625E-04  0.247140092710E-04  0.272031933777E-04  0.299430159807E-04  0.329587018041E-04
  0.362780120967E-04  0.399314993271E-04  0.439527873876E-04  0.483788798519E-04  0.532504990822E-04
  0.586124592564E-04  0.645140766918E-04  0.710096211716E-04  0.781588123482E-04  0.860273656950E-04
  0.946875929176E-04  0.104219062219E-03  0.114709324334E-03  0.126254710836E-03  0.138961211833E-03
  0.152945440885E-03  0.168335695716E-03  0.185273124113E-03  0.203913005349E-03  0.224426158393E-03
  0.247000489318E-03  0.271842691440E-03  0.299180113045E-03  0.329262808933E-03  0.362365793561E-03
  0.398791515211E-03  0.438872572414E-03  0.482974695826E-03  0.531500020901E-03  0.584890678969E-03
  0.643632736879E-03  0.708260518022E-03  0.779361340505E-03  0.857580711371E-03  0.943628019136E-03
  0.103828277059E-02  0.114240142164E-02  0.125692485619E-02  0.138288657152E-02  0.152142163315E-02
  0.167377646755E-02  0.184131956583E-02  0.202555317756E-02  0.222812607934E-02  0.245084750884E-02
  0.269570236119E-02  0.296486775101E-02  0.326073104968E-02  0.358590951375E-02  0.394327162685E-02
  0.433596028326E-02  0.476741794697E-02  0.524141392499E-02  0.576207389771E-02  0.633391185212E-02
  0.696186456496E-02  0.765132878227E-02  0.840820123901E-02  0.923892165587E-02  0.101505188409E-01
  0.111506600090E-01  0.122477034115E-01  0.134507543431E-01  0.147697245555E-01  0.162153950669E-01
  0.177994822964E-01  0.195347073874E-01  0.214348684973E-01  0.235149157304E-01  0.257910282676E-01
  0.282806930980E-01  0.310027845881E-01  0.339776439149E-01  0.372271571518E-01  0.407748305177E-01
  0.446458609761E-01  0.488672000014E-01  0.534676079063E-01  0.584776956438E-01  0.639299504606E-01
  0.698587411714E-01  0.763002981607E-01  0.832926624870E-01  0.908755976717E-01  0.990904569127E-01
  0.107979997576E+00  0.117588133905E+00  0.127959617982E+00  0.139139638099E+00  0.151173322892E+00
  0.164105138970E+00  0.177978169308E+00  0.192833259570E+00  0.208708019874E+00  0.225635670369E+00
  0.243643720711E+00  0.262752476105E+00  0.282973366431E+00  0.304307100238E+00  0.326741652426E+00
  0.350250103541E+00  0.374788360067E+00  0.400292799212E+00  0.426677898752E+00  0.453833932548E+00
  0.481624835550E+00  0.509886368033E+00  0.538424737141E+00  0.567015863347E+00  0.595405508780E+00
  0.623310511143E+00  0.650421387913E+00  0.676406586519E+00  0.700918651553E+00  0.723602553102E+00
  0.744106362713E+00  0.762094366052E+00  0.777262553911E+00  0.789356225731E+00  0.798189163465E+00
  0.803663482700E+00  0.805788842271E+00  0.804699202406E+00  0.800664786912E+00  0.794096368053E+00
  0.785538518100E+00  0.775648152771E+00  0.765154655179E+00  0.754798273981E+00  0.745244523787E+00
  0.736974181181E+00  0.730177940808E+00  0.724944476619E+00  0.721409534158E+00  0.719718069325E+00
  0.000000000000E+00  0.000000000000E+00  0.000000000000E+00  0.000000000000E+00  0.000000000000E+00
  0.000000000000E+00  0.000000000000E+00  0.000000000000E+00  0.000000000000E+00  0.000000000000E+00
  0.000000000000E+00  0.000000000000E+00  0.000000000000E+00  0.000000000000E+00  0.000000000000E+00
  0.000000000000E+00  0.000000000000E+00  0.000000000000E+00  0.000000000000E+00  0.000000000000E+00
  0.000000000000E+00  0.000000000000E+00  0.000000000000E+00  0.000000000000E+00  0.000000000000E+00
  0.000000000000E+00  0.000000000000E+00  0.000000000000E+00  0.000000000000E+00  0.000000000000E+00
  0.000000000000E+00  0.000000000000E+00
 ae wavefunction
  0.167776496020E-09  0.183713345445E-09  0.201001999575E-09  0.219770305092E-09  0.240157217528E-09
  0.262313857125E-09  0.286404657414E-09  0.312608619956E-09  0.341120678906E-09  0.372153194339E-09
  0.405937576446E-09  0.442726064332E-09  0.482793663511E-09  0.526440266238E-09  0.573992964139E-09
  0.625808578642E-09  0.682276424396E-09  0.743821331176E-09  0.810906947538E-09  0.884039352860E-09
  0.963771007838E-09  0.105070507626E-08  0.114550015088E-08  0.124887542509E-08  0.136161635193E-08
  0.148458083523E-08  0.161870600659E-08  0.176501564263E-08  0.192462828347E-08  0.209876612211E-08
  0.228876473543E-08  0.249608374007E-08  0.272231846143E-08  0.296921271303E-08  0.323867279357E-08
  0.353278281890E-08  0.385382151791E-08  0.420428063356E-08  0.458688508428E-08  0.500461505619E-08
  0.546073021287E-08  0.595879622804E-08  0.650271386635E-08  0.709675085950E-08  0.774557684940E-08
  0.845430169584E-08  0.922851747701E-08  0.100743445402E-07  0.109984819999E-07  0.120082631136E-07
  0.131117160120E-07  0.143176303076E-07  0.156356301520E-07  0.170762543742E-07  0.186510443876E-07
  0.203726406337E-07  0.222548883852E-07  0.243129538299E-07  0.265634514479E-07  0.290245837700E-07
  0.317162947472E-07  0.346604380561E-07  0.378809617996E-07  0.414041112188E-07  0.452586511718E-07
  0.494761103222E-07  0.540910491703E-07  0.591413542482E-07  0.646685610630E-07  0.707182086024E-07
  0.773402284863E-07  0.845893721822E-07  0.925256800019E-07  0.101214995988E-06  0.110729533189E-06
  0.121148494259E-06  0.132558752801E-06  0.145055601497E-06  0.158743573332E-06  0.173737343481E-06
  0.190162719316E-06  0.208157727510E-06  0.227873807576E-06  0.249477122352E-06  0.273149996827E-06
  0.299092497886E-06  0.327524168813E-06  0.358685933641E-06  0.392842187936E-06  0.430283094399E-06
  0.471327103019E-06  0.516323718006E-06  0.565656535407E-06  0.619746577857E-06  0.679055955505E-06
  0.744091884748E-06  0.815411099880E-06  0.893624695560E-06  0.979403442344E-06  0.107348362096E-05
  0.117667342595E-05  0.128985999371E-05  0.141401711570E-05  0.155021370292E-05  0.169962307461E-05
  0.186353315071E-05  0.204335763542E-05  0.224064828749E-05  0.245710838194E-05  0.269460747799E-05
  0.295519761861E-05  0.324113109943E-05  0.355487995729E-05  0.389915734323E-05  0.427694096018E-05
  0.469149876241E-05  0.514641713257E-05  0.564563177212E-05  0.619346156282E-05  0.679464568179E-05
  0.745438427747E-05  0.817838304404E-05  0.897290206114E-05  0.984480930163E-05  0.108016392449E-04
  0.118516570758E-04  0.130039289902E-04  0.142683991787E-04  0.156559741094E-04  0.171786147878E-04
  0.188494377331E-04  0.206828254756E-04  0.226945474534E-04  0.249018922618E-04  0.273238122971E-04
  0.299810819249E-04  0.328964704028E-04  0.360949308972E-04  0.396038070463E-04  0.434530586498E-04
  0.476755081990E-04  0.523071101101E-04  0.573872446777E-04  0.629590389386E-04  0.690697168163E-04
  0.757709811165E-04  0.831194301514E-04  0.911770120017E-04  0.100011519666E-03  0.109697130610E-03
  0.120314994505E-03  0.131953873249E-03  0.144710837671E-03  0.158692025676E-03  0.174013466936E-03
  0.190801979617E-03  0.209196145054E-03  0.229347366700E-03  0.251421020150E-03  0.275597701501E-03
  0.302074581848E-03  0.331066876220E-03  0.362809435836E-03  0.397558473143E-03  0.435593429706E-03
  0.477218997649E-03  0.522767306017E-03  0.572600284079E-03  0.627112214303E-03  0.686732488441E-03
  0.751928580866E-03  0.823209254049E-03  0.901128011761E-03  0.986286816321E-03  0.107934008692E-02
  0.118099899673E-02  0.129203608708E-02  0.141329021782E-02  0.154567187312E-02  0.169016884299E-02
  0.184785230056E-02  0.201988329598E-02  0.220751968767E-02  0.241212353151E-02  0.263516894887E-02
  0.287825049328E-02  0.314309203557E-02  0.343155618600E-02  0.374565427070E-02  0.408755687842E-02
  0.445960499141E-02  0.486432171181E-02  0.530442459244E-02  0.578283857683E-02  0.630270955015E-02
  0.686741849722E-02  0.748059625919E-02  0.814613887397E-02  0.886822347881E-02  0.965132474554E-02
  0.105002318106E-01  0.114200656523E-01  0.124162968562E-01  0.134947637009E-01  0.146616904793E-01
  0.159237059609E-01  0.172878618851E-01  0.187616513587E-01  0.203530270177E-01  0.220704187955E-01
  0.239227511249E-01  0.259194593846E-01  0.280705053830E-01  0.303863916591E-01  0.328781743525E-01
  0.355574743747E-01  0.384364865677E-01  0.415279864823E-01  0.448453343206E-01  0.484024754824E-01
  0.522139370096E-01  0.562948190993E-01  0.606607807506E-01  0.653280185916E-01  0.703132380346E-01
  0.756336161395E-01  0.813067558985E-01  0.873506320294E-01  0.937835286919E-01  0.100623969715E+00
  0.107890641864E+00  0.115602311304E+00  0.123777732873E+00  0.132435551233E+00  0.141594192688E+00
  0.151271746610E+00  0.161485835770E+00  0.172253475336E+00  0.183590920570E+00  0.195513503424E+00
  0.208035458247E+00  0.221169736805E+00  0.234927812942E+00  0.249319477329E+00  0.264352623025E+00
  0.280033022902E+00  0.296364100383E+00  0.313346695318E+00  0.330978827421E+00  0.349255460020E+00
  0.368168267535E+00  0.387705410468E+00  0.407851322188E+00  0.428586512066E+00  0.449887389619E+00
  0.471726114254E+00  0.494070474697E+00  0.516883801595E+00  0.540124915936E+00  0.563748115535E+00
  0.587703202279E+00  0.611935555524E+00  0.636386262869E+00  0.660992329780E+00  0.685687003559E+00
  0.710400259907E+00  0.735059499175E+00  0.759590456512E+00  0.783918210614E+00  0.807967955788E+00
  0.831664969249E+00  0.854933169244E+00  0.877692180541E+00  0.899853920329E+00  0.921320828813E+00
  0.941987657512E+00  0.961746482635E+00  0.980492214754E+00  0.998126130593E+00  0.101455716998E+01
  0.102970211528E+01  0.104348565439E+01  0.105584073925E+01  0.106670925800E+01  0.107604287441E+01
  0.108380385606E+01  0.108996574794E+01  0.109451380443E+01  0.109744515417E+01  0.109876870916E+01
  0.109850485572E+01  0.109668496795E+01  0.109335078817E+01  0.108855371146E+01  0.108235400945E+01
  0.107482002117E+01  0.106602733408E+01  0.105605797823E+01  0.104499964210E+01  0.103294492674E+01
  0.101999063935E+01  0.100623713154E+01  0.991787680727E+00  0.976747914444E+00  0.961225276411E+00
  0.945328535303E+00  0.929167344512E+00  0.912851853926E+00  0.896492398343E+00  0.880199267724E+00
  0.864082579328E+00  0.848252260426E+00  0.832818143566E+00  0.817890165645E+00  0.803578650776E+00
  0.789994649802E+00  0.777250309775E+00  0.765459258933E+00  0.754737017885E+00  0.745201480571E+00
  0.736973538371E+00  0.730177940808E+00  0.724944476619E+00  0.721409534158E+00  0.719718069325E+00
  0.000000000000E+00  0.000000000000E+00  0.000000000000E+00  0.000000000000E+00  0.000000000000E+00
  0.000000000000E+00  0.000000000000E+00  0.000000000000E+00  0.000000000000E+00  0.000000000000E+00
  0.000000000000E+00  0.000000000000E+00  0.000000000000E+00  0.000000000000E+00  0.000000000000E+00
  0.000000000000E+00  0.000000000000E+00  0.000000000000E+00  0.000000000000E+00  0.000000000000E+00
  0.000000000000E+00  0.000000000000E+00  0.000000000000E+00  0.000000000000E+00  0.000000000000E+00
  0.000000000000E+00  0.000000000000E+00  0.000000000000E+00  0.000000000000E+00  0.000000000000E+00
  0.000000000000E+00  0.000000000000E+00
 pseudo wavefunction
  0.115387508981E-04  0.119139622963E-04  0.123013746336E-04  0.127013846541E-04  0.131144020031E-04
  0.135408496466E-04  0.139811643043E-04  0.144357968970E-04  0.149052130082E-04  0.153898933613E-04
  0.158903343113E-04  0.164070483536E-04  0.169405646488E-04  0.174914295643E-04  0.180602072341E-04
  0.186474801363E-04  0.192538496901E-04  0.198799368711E-04  0.205263828474E-04  0.211938496366E-04
  0.218830207833E-04  0.225946020592E-04  0.233293221863E-04  0.240879335825E-04  0.248712131326E-04
  0.256799629840E-04  0.265150113675E-04  0.273772134465E-04  0.282674521918E-04  0.291866392864E-04
  0.301357160591E-04  0.311156544484E-04  0.321274579977E-04  0.331721628834E-04  0.342508389759E-04
  0.353645909350E-04  0.365145593416E-04  0.377019218653E-04  0.389278944710E-04  0.401937326636E-04
  0.415007327743E-04  0.428502332877E-04  0.442436162129E-04  0.456823084987E-04  0.471677834948E-04
  0.487015624608E-04  0.502852161244E-04  0.519203662895E-04  0.536086874972E-04  0.553519087413E-04
  0.571518152382E-04  0.590102502557E-04  0.609291170003E-04  0.629103805668E-04  0.649560699505E-04
  0.670682801251E-04  0.692491741885E-04  0.715009855776E-04  0.738260203564E-04  0.762266595768E-04
  0.787053617179E-04  0.812646652035E-04  0.839071910016E-04  0.866356453093E-04  0.894528223236E-04
  0.923616071038E-04  0.953649785258E-04  0.984660123329E-04  0.101667884287E-03  0.104973873418E-03
  0.108387365388E-03  0.111911855952E-03  0.115550954542E-03  0.119308387966E-03  0.123188004220E-03
  0.127193776431E-03  0.131329806928E-03  0.135600331443E-03  0.140009723450E-03  0.144562498640E-03
  0.149263319556E-03  0.154117000357E-03  0.159128511758E-03  0.164302986119E-03  0.169645722699E-03
  0.175162193091E-03  0.180858046820E-03  0.186739117134E-03  0.192811426978E-03  0.199081195165E-03
  0.205554842748E-03  0.212238999595E-03  0.219140511183E-03  0.226266445612E-03  0.233624100845E-03
  0.241221012187E-03  0.249064960002E-03  0.257163977692E-03  0.265526359921E-03  0.274160671119E-03
  0.283075754258E-03  0.292280739914E-03  0.301785055623E-03  0.311598435545E-03  0.321730930442E-03
  0.332192917976E-03  0.342995113350E-03  0.354148580294E-03  0.365664742403E-03  0.377555394854E-03
  0.389832716495E-03  0.402509282339E-03  0.415598076458E-03  0.429112505297E-03  0.443066411430E-03
  0.457474087757E-03  0.472350292168E-03  0.487710262688E-03  0.503569733110E-03  0.519944949147E-03
  0.536852685108E-03  0.554310261115E-03  0.572335560894E-03  0.590947050134E-03  0.610163795464E-03
  0.630005484032E-03  0.650492443744E-03  0.671645664152E-03  0.693486818037E-03  0.716038283695E-03
  0.739323167957E-03  0.763365329961E-03  0.788189405716E-03  0.813820833460E-03  0.840285879865E-03
  0.867611667102E-03  0.895826200792E-03  0.924958398892E-03  0.955038121524E-03  0.986096201802E-03
  0.101816447767E-02  0.105127582479E-02  0.108546419055E-02  0.112076462919E-02  0.115721333805E-02
  0.119484769510E-02  0.123370629772E-02  0.127382900267E-02  0.131525696757E-02  0.135803269359E-02
  0.140220006974E-02  0.144780441858E-02  0.149489254340E-02  0.154351277718E-02  0.159371503301E-02
  0.164555085642E-02  0.169907347933E-02  0.175433787596E-02  0.181140082061E-02  0.187032094747E-02
  0.193115881246E-02  0.199397695725E-02  0.205883997550E-02  0.212581458144E-02  0.219496968086E-02
  0.226637644458E-02  0.234010838456E-02  0.241624143279E-02  0.249485402288E-02  0.257602717475E-02
  0.265984458231E-02  0.274639270436E-02  0.283576085892E-02  0.292804132098E-02  0.302332942395E-02
  0.312172366495E-02  0.322332581409E-02  0.332824102797E-02  0.343657796757E-02  0.354844892074E-02
  0.366396992958E-02  0.378326092284E-02  0.390644585375E-02  0.403365284339E-02  0.416501433009E-02
  0.430066722495E-02  0.444075307406E-02  0.458541822762E-02  0.473481401639E-02  0.488909693602E-02
  0.504842883945E-02  0.521297713821E-02  0.538291501282E-02  0.555842163314E-02  0.573968238910E-02
  0.592688913258E-02  0.612024043110E-02  0.631994183419E-02  0.652620615314E-02  0.673925375527E-02
  0.695931287346E-02  0.718661993224E-02  0.742141989148E-02  0.766396660904E-02  0.791452322371E-02
  0.817336255998E-02  0.844076755625E-02  0.871703171835E-02  0.900245960023E-02  0.929736731394E-02
  0.960208307132E-02  0.991694775982E-02  0.102423155552E-01  0.105785545742E-01  0.109260475704E-01
  0.112851926767E-01  0.116564041986E-01  0.120401134624E-01  0.124367697229E-01  0.128468411359E-01
  0.132708158003E-01  0.137092028776E-01  0.141625337927E-01  0.146313635262E-01  0.151162720037E-01
  0.156178655918E-01  0.161367787107E-01  0.166736755719E-01  0.172292520539E-01  0.178042377276E-01
  0.183993980437E-01  0.190155366989E-01  0.196534981933E-01  0.203141706001E-01  0.209984885631E-01
  0.217074365441E-01  0.224420523423E-01  0.232034309084E-01  0.239927284824E-01  0.248111670795E-01
  0.256600393591E-01  0.265407139070E-01  0.274546409684E-01  0.284033586702E-01  0.293884997749E-01
  0.304117990115E-01  0.314751010307E-01  0.325803690386E-01  0.337296941641E-01  0.349253056192E-01
  0.361695817164E-01  0.374650618117E-01  0.388144592441E-01  0.402206753473E-01  0.416868146137E-01
  0.432162010946E-01  0.448123961210E-01  0.464792174370E-01  0.482207598347E-01  0.500414173859E-01
  0.519459073614E-01  0.539392959300E-01  0.560270257270E-01  0.582149453730E-01  0.605093410206E-01
  0.629169699906E-01  0.654450965476E-01  0.681015298418E-01  0.708946640209E-01  0.738335204792E-01
  0.769277921750E-01  0.801878898921E-01  0.836249902642E-01  0.872510853033E-01  0.910790330869E-01
  0.951226091495E-01  0.993965579998E-01  0.103916644037E+00  0.108699700959E+00  0.113763678571E+00
  0.119127685632E+00  0.124812027150E+00  0.130838234196E+00  0.137229083958E+00  0.144008607368E+00
  0.151202081182E+00  0.158836000878E+00  0.166938030214E+00  0.175536922666E+00  0.184662409302E+00
  0.194345046991E+00  0.204616020081E+00  0.215506887942E+00  0.227049270041E+00  0.239274459488E+00
  0.252212955337E+00  0.265893903427E+00  0.280344435192E+00  0.295588893773E+00  0.311647937105E+00
  0.328537508353E+00  0.346267665545E+00  0.364841264420E+00  0.384252491711E+00  0.404485250572E+00
  0.425511405714E+00  0.447288903531E+00  0.469759792153E+00  0.492848178349E+00  0.516458172729E+00
  0.540471891879E+00  0.564747606083E+00  0.589118143939E+00  0.613389690156E+00  0.637341139518E+00
  0.660724197178E+00  0.683264441536E+00  0.704663588464E+00  0.724603211419E+00  0.742750176672E+00
  0.758764041259E+00  0.772321993130E+00  0.783302992673E+00  0.791674712621E+00  0.797422459208E+00
  0.800544180252E+00  0.801051152998E+00  0.798968742954E+00  0.794337133999E+00  0.787211965002E+00
  0.777664816912E+00  0.765783513698E+00  0.751672209375E+00  0.735451224850E+00  0.717256594711E+00
  0.697239275545E+00  0.675563958989E+00  0.652407453051E+00  0.627956608649E+00  0.602405819283E+00
  0.575954165511E+00  0.548802332597E+00  0.521149458776E+00  0.493190100965E+00  0.465111484488E+00
  0.437091179885E+00  0.409295296088E+00  0.381877234004E+00  0.354976978867E+00  0.328720873055E+00
  0.303221768348E+00  0.278579434869E+00  0.254881094911E+00  0.232201957338E+00  0.210605652135E+00
  0.190144502733E+00  0.170859620533E+00
 ae wavefunction
 -0.777572197186E-03 -0.802406751793E-03 -0.828032690366E-03 -0.854475114767E-03 -0.881759915684E-03
 -0.909913796915E-03 -0.938964300452E-03 -0.968939832174E-03 -0.999869688464E-03 -0.103178408339E-02
 -0.106471417692E-02 -0.109869210369E-02 -0.113375100285E-02 -0.116992504856E-02 -0.120724948152E-02
 -0.124576064127E-02 -0.128549599950E-02 -0.132649419425E-02 -0.136879506504E-02 -0.141243968908E-02
 -0.145747041840E-02 -0.150393091801E-02 -0.155186620517E-02 -0.160132268968E-02 -0.165234821525E-02
 -0.170499210206E-02 -0.175930519040E-02 -0.181533988548E-02 -0.187315020345E-02 -0.193279181860E-02
 -0.199432211181E-02 -0.205780022025E-02 -0.212328708831E-02 -0.219084551992E-02 -0.226054023204E-02
 -0.233243790962E-02 -0.240660726184E-02 -0.248311907967E-02 -0.256204629493E-02 -0.264346404064E-02
 -0.272744971283E-02 -0.281408303375E-02 -0.290344611653E-02 -0.299562353124E-02 -0.309070237245E-02
 -0.318877232817E-02 -0.328992575028E-02 -0.339425772640E-02 -0.350186615319E-02 -0.361285181105E-02
 -0.372731844029E-02 -0.384537281866E-02 -0.396712484029E-02 -0.409268759592E-02 -0.422217745454E-02
 -0.435571414623E-02 -0.449342084627E-02 -0.463542426047E-02 -0.478185471158E-02 -0.493284622682E-02
 -0.508853662635E-02 -0.524906761269E-02 -0.541458486099E-02 -0.558523810991E-02 -0.576118125327E-02
 -0.594257243203E-02 -0.612957412670E-02 -0.632235324993E-02 -0.652108123910E-02 -0.672593414882E-02
 -0.693709274298E-02 -0.715474258632E-02 -0.737907413515E-02 -0.761028282702E-02 -0.784856916907E-02
 -0.809413882470E-02 -0.834720269832E-02 -0.860797701769E-02 -0.887668341380E-02 -0.915354899724E-02
 -0.943880643144E-02 -0.973269400159E-02 -0.100354556791E-01 -0.103473411812E-01 -0.106686060241E-01
 -0.109995115711E-01 -0.113403250725E-01 -0.116913196981E-01 -0.120527745618E-01 -0.124249747362E-01
 -0.128082112571E-01 -0.132027811168E-01 -0.136089872453E-01 -0.140271384786E-01 -0.144575495113E-01
 -0.149005408353E-01 -0.153564386599E-01 -0.158255748143E-01 -0.163082866306E-01 -0.168049168046E-01
 -0.173158132336E-01 -0.178413288302E-01 -0.183818213084E-01 -0.189376529414E-01 -0.195091902886E-01
 -0.200968038895E-01 -0.207008679224E-01 -0.213217598248E-01 -0.219598598739E-01 -0.226155507238E-01
 -0.232892168961E-01 -0.239812442218E-01 -0.246920192309E-01 -0.254219284862E-01 -0.261713578573E-01
 -0.269406917328E-01 -0.277303121645E-01 -0.285405979413E-01 -0.293719235884E-01 -0.302246582858E-01
 -0.310991647042E-01 -0.319957977503E-01 -0.329149032200E-01 -0.338568163512E-01 -0.348218602731E-01
 -0.358103443448E-01 -0.368225623792E-01 -0.378587907449E-01 -0.389192863409E-01 -0.400042844376E-01
 -0.411139963777E-01 -0.422486071309E-01 -0.434082726961E-01 -0.445931173432E-01 -0.458032306897E-01
 -0.470386646039E-01 -0.482994299285E-01 -0.495854930188E-01 -0.508967720873E-01 -0.522331333499E-01
 -0.535943869663E-01 -0.549802827696E-01 -0.563905057791E-01 -0.578246714903E-01 -0.592823209392E-01
 -0.607629155348E-01 -0.622658316577E-01 -0.637903550211E-01 -0.653356747941E-01 -0.669008774838E-01
 -0.684849405805E-01 -0.700867259638E-01 -0.717049730764E-01 -0.733382918692E-01 -0.749851555240E-01
 -0.766438929656E-01 -0.783126811717E-01 -0.799895372969E-01 -0.816723106282E-01 -0.833586743897E-01
 -0.850461174235E-01 -0.867319357713E-01 -0.884132241910E-01 -0.900868676415E-01 -0.917495327792E-01
 -0.933976595097E-01 -0.950274526482E-01 -0.966348737443E-01 -0.982156331369E-01 -0.997651823073E-01
 -0.101278706610E+00 -0.102751118466E+00 -0.104177051109E+00 -0.105550852992E+00 -0.106866582958E+00
 -0.108118006294E+00 -0.109298591806E+00 -0.110401510035E+00 -0.111419632787E+00 -0.112345534102E+00
 -0.113171492869E+00 -0.113889497223E+00 -0.114491250947E+00 -0.114968182057E+00 -0.115311453775E+00
 -0.115511978123E+00 -0.115560432341E+00 -0.115447278369E+00 -0.115162785634E+00 -0.114697057375E+00
 -0.114040060750E+00 -0.113181660980E+00 -0.112111659765E+00 -0.110819838212E+00 -0.109296004515E+00
 -0.107530046603E+00 -0.105511989974E+00 -0.103232060890E+00 -0.100680755120E+00 -0.978489123605E-01
 -0.947277964343E-01 -0.913091813521E-01 -0.875854432423E-01 -0.835496581276E-01 -0.791957054558E-01
 -0.745183772296E-01 -0.695134925043E-01 -0.641780169406E-01 -0.585101870061E-01 -0.525096383191E-01
 -0.461775375149E-01 -0.395167168905E-01 -0.325318109501E-01 -0.252293938251E-01 -0.176181163940E-01
 -0.970884176966E-02 -0.151477768705E-02  0.694839578798E-02  0.156624048665E-01  0.246062685914E-01
  0.337561948940E-01  0.430854876044E-01  0.525644657904E-01  0.621603968636E-01  0.718374451789E-01
  0.815566383963E-01  0.912758546296E-01  0.100949834211E+00  0.110530220556E+00  0.119965634920E+00
  0.129201789568E+00  0.138181643061E+00  0.146845600136E+00  0.155131757362E+00  0.162976194979E+00
  0.170313314988E+00  0.177076225656E+00  0.183197172653E+00  0.188608016824E+00  0.193240758139E+00
  0.197028104627E+00  0.199904084366E+00  0.201804697892E+00  0.202668607651E+00  0.202437860527E+00
  0.201058638724E+00  0.198482033642E+00  0.194664836509E+00  0.189570338801E+00  0.183169134458E+00
  0.175439915021E+00  0.166370247752E+00  0.155957325804E+00  0.144208678471E+00  0.131142828598E+00
  0.116789883463E+00  0.101192044873E+00  0.844040240334E-01  0.664933470481E-01  0.475405376926E-01
  0.276391653610E-01  0.689574750510E-02 -0.145705031192E-01 -0.366280962621E-01 -0.591338591295E-01
 -0.819337247256E-01 -0.104863733468E+00 -0.127751263328E+00 -0.150416476533E+00 -0.172673904666E+00
 -0.194333996988E+00 -0.215204388396E+00 -0.235090735223E+00 -0.253797295949E+00 -0.271127875199E+00
 -0.286887849978E+00 -0.300887374707E+00 -0.312944988538E+00 -0.322890733078E+00 -0.330568528051E+00
 -0.335838056502E+00 -0.338576444365E+00 -0.338679853229E+00 -0.336064974339E+00 -0.330670350960E+00
 -0.322457444792E+00 -0.311411379100E+00 -0.297541319572E+00 -0.280880484504E+00 -0.261485797209E+00
 -0.239437208922E+00 -0.214836726455E+00 -0.187807183002E+00 -0.158490790041E+00 -0.127047508153E+00
 -0.936532721877E-01 -0.584981043167E-01 -0.217841464220E-01  0.162763603540E-01  0.554631219080E-01
  0.955498393066E-01  0.136306235274E+00  0.177500036594E+00  0.218898890235E+00  0.260272191652E+00
  0.301392804784E+00  0.342038657045E+00  0.381994193363E+00  0.421051685429E+00  0.459012392343E+00
  0.495687579570E+00  0.530899405829E+00  0.564481686657E+00  0.596280538358E+00  0.626154895488E+00
  0.653976883438E+00  0.679632020131E+00  0.703019224593E+00  0.724050631385E+00  0.742651247075E+00
  0.758758527790E+00  0.772321993130E+00  0.783302992673E+00  0.791674712621E+00  0.797422459208E+00
  0.800544180252E+00  0.801051152998E+00  0.798968742954E+00  0.794337133999E+00  0.787211965002E+00
  0.777664816912E+00  0.765783513698E+00  0.751672209375E+00  0.735451224850E+00  0.717256594711E+00
  0.697239275545E+00  0.675563958989E+00  0.652407453051E+00  0.627956608649E+00  0.602405819283E+00
  0.575954165511E+00  0.548802332597E+00  0.521149458776E+00  0.493190100965E+00  0.465111484488E+00
  0.437091179885E+00  0.409295296088E+00  0.381877234004E+00  0.354976978867E+00  0.328720873055E+00
  0.303221768348E+00  0.278579434869E+00  0.254881094911E+00  0.232201957338E+00  0.210605652135E+00
  0.190144502733E+00  0.170859620533E+00
 pseudo wavefunction
  0.316430781794E-04  0.326720321544E-04  0.337344451469E-04  0.348314051609E-04  0.359640355795E-04
  0.371334963154E-04  0.383409849988E-04  0.395877382039E-04  0.408750327152E-04  0.422041868350E-04
  0.435765617336E-04  0.449935628432E-04  0.464566412972E-04  0.479672954162E-04  0.495270722424E-04
  0.511375691242E-04  0.528004353516E-04  0.545173738457E-04  0.562901429022E-04  0.581205579922E-04
  0.600104936217E-04  0.619618852507E-04  0.639767312759E-04  0.660570950767E-04  0.682051071287E-04
  0.704229671854E-04  0.727129465307E-04  0.750773903053E-04  0.775187199079E-04  0.800394354755E-04
  0.826421184433E-04  0.853294341884E-04  0.881041347597E-04  0.909690616959E-04  0.939271489359E-04
  0.969814258230E-04  0.100135020208E-03  0.103391161650E-03  0.106753184729E-03  0.110224532454E-03
  0.113808759795E-03  0.117509537321E-03  0.121330654957E-03  0.125276025870E-03  0.129349690473E-03
  0.133555820564E-03  0.137898723597E-03  0.142382847096E-03  0.147012783208E-03  0.151793273406E-03
  0.156729213343E-03  0.161825657872E-03  0.167087826213E-03  0.172521107309E-03  0.178131065334E-03
  0.183923445401E-03  0.189904179440E-03  0.196079392274E-03  0.202455407894E-03  0.209038755932E-03
  0.215836178350E-03  0.222854636348E-03  0.230101317486E-03  0.237583643051E-03  0.245309275656E-03
  0.253286127088E-03  0.261522366409E-03  0.270026428324E-03  0.278807021821E-03  0.287873139087E-03
  0.297234064722E-03  0.306899385243E-03  0.316878998909E-03  0.327183125850E-03  0.337822318545E-03
  0.348807472622E-03  0.360149838020E-03  0.371861030514E-03  0.383953043608E-03  0.396438260823E-03
  0.409329468380E-03  0.422639868297E-03  0.436383091909E-03  0.450573213836E-03  0.465224766395E-03
  0.480352754487E-03  0.495972670971E-03  0.512100512529E-03  0.528752796056E-03  0.545946575580E-03
  0.563699459732E-03  0.582029629786E-03  0.600955858282E-03  0.620497528265E-03  0.640674653136E-03
  0.661507897164E-03  0.683018596653E-03  0.705228781805E-03  0.728161199296E-03  0.751839335582E-03
  0.776287440968E-03  0.801530554456E-03  0.827594529410E-03  0.854506060050E-03  0.882292708812E-03
  0.910982934600E-03  0.940606121955E-03  0.971192611180E-03  0.100277372944E-02  0.103538182290E-02
  0.106905028984E-02  0.110381361497E-02  0.113970740473E-02  0.117676842386E-02  0.121503463306E-02
  0.125454522799E-02  0.129534067940E-02  0.133746277474E-02  0.138095466097E-02  0.142586088888E-02
  0.147222745882E-02  0.152010186790E-02  0.156953315875E-02  0.162057196994E-02  0.167327058793E-02
  0.172768300079E-02  0.178386495373E-02  0.184187400633E-02  0.190176959174E-02  0.196361307777E-02
  0.202746783004E-02  0.209339927716E-02  0.216147497804E-02  0.223176469148E-02  0.230434044797E-02
  0.237927662392E-02  0.245665001831E-02  0.253653993185E-02  0.261902824881E-02  0.270419952150E-02
  0.279214105758E-02  0.288294301024E-02  0.297669847141E-02  0.307350356800E-02  0.317345756145E-02
  0.327666295045E-02  0.338322557726E-02  0.349325473740E-02  0.360686329321E-02  0.372416779103E-02
  0.384528858245E-02  0.397034994960E-02  0.409948023468E-02  0.423281197384E-02  0.437048203569E-02
  0.451263176439E-02  0.465940712776E-02  0.481095887036E-02  0.496744267188E-02  0.512901931099E-02
  0.529585483480E-02  0.546812073425E-02  0.564599412563E-02  0.582965793839E-02  0.601930110960E-02
  0.621511878526E-02  0.641731252879E-02  0.662609053689E-02  0.684166786324E-02  0.706426665016E-02
  0.729411636882E-02  0.753145406810E-02  0.777652463270E-02  0.802958105078E-02  0.829088469160E-02
  0.856070559361E-02  0.883932276348E-02  0.912702448655E-02  0.942410864936E-02  0.973088307458E-02
  0.100476658694E-01  0.103747857873E-01  0.107125826051E-01  0.110614075145E-01  0.114216235306E-01
  0.117936059163E-01  0.121777426257E-01  0.125744347657E-01  0.129840970779E-01  0.134071584414E-01
  0.138440623977E-01  0.142952676999E-01  0.147612488866E-01  0.152424968821E-01  0.157395196253E-01
  0.162528427287E-01  0.167830101691E-01  0.173305850127E-01  0.178961501762E-01  0.184803092271E-01
  0.190836872257E-01  0.197069316103E-01  0.203507131318E-01  0.210157268372E-01  0.217026931097E-01
  0.224123587658E-01  0.231454982163E-01  0.239029146949E-01  0.246854415600E-01  0.254939436742E-01
  0.263293188697E-01  0.271924995043E-01  0.280844541162E-01  0.290061891855E-01  0.299587510110E-01
  0.309432277115E-01  0.319607513618E-01  0.330125002755E-01  0.340997014450E-01  0.352236331540E-01
  0.363856277759E-01  0.375870747735E-01  0.388294239183E-01  0.401141887476E-01  0.414429502793E-01
  0.428173610081E-01  0.442391492057E-01  0.457101235520E-01  0.472321781265E-01  0.488072977909E-01
  0.504375639951E-01  0.521251610467E-01  0.538723828805E-01  0.556816403735E-01  0.575554692520E-01
  0.594965386404E-01  0.615076603082E-01  0.635917986733E-01  0.657520816268E-01  0.679918122462E-01
  0.703144814735E-01  0.727237818361E-01  0.752236222957E-01  0.778181443172E-01  0.805117392530E-01
  0.833090671479E-01  0.862150770713E-01  0.892350290937E-01  0.923745180274E-01  0.956394990594E-01
  0.990363154051E-01  0.102571728122E+00  0.106252948220E+00  0.110087671207E+00  0.114084114216E+00
  0.118251055851E+00  0.122597878872E+00  0.127134615871E+00  0.131871998022E+00  0.136821507021E+00
  0.141995430269E+00  0.147406919353E+00  0.153070051798E+00  0.158999896066E+00  0.165212579640E+00
  0.171725360029E+00  0.178556698367E+00  0.185726335200E+00  0.193255367883E+00  0.201166328857E+00
  0.209483263855E+00  0.218231808843E+00  0.227439264220E+00  0.237134664455E+00  0.247348840937E+00
  0.258114475364E+00  0.269466140463E+00  0.281440324205E+00  0.294075432988E+00  0.307411768451E+00
  0.321491471688E+00  0.336358427580E+00  0.352058120845E+00  0.368637434128E+00  0.386144377042E+00
  0.404627733583E+00  0.424136613649E+00  0.444719892720E+00  0.466425521887E+00  0.489299688585E+00
  0.513385806581E+00  0.538723311973E+00  0.565346240462E+00  0.593281559920E+00  0.622547231529E+00
  0.653149972774E+00  0.685082696485E+00  0.718321602318E+00  0.752822901001E+00  0.788519157581E+00
  0.825315248618E+00  0.863083940100E+00  0.901661108682E+00  0.940840649292E+00  0.980369138065E+00
  0.101994035160E+01  0.105918978263E+01  0.109768933868E+01  0.113494246479E+01  0.117037999363E+01
  0.120335709606E+01  0.123315178057E+01  0.125896546943E+01  0.127992625760E+01  0.129509553372E+01
  0.130347870112E+01  0.130404077179E+01  0.129572760373E+01  0.127749349571E+01  0.124833572374E+01
  0.120733637899E+01  0.115374196725E+01  0.108722788931E+01  0.100774232998E+01  0.915374582430E+00
  0.000000000000E+00  0.000000000000E+00  0.000000000000E+00  0.000000000000E+00  0.000000000000E+00
  0.000000000000E+00  0.000000000000E+00  0.000000000000E+00  0.000000000000E+00  0.000000000000E+00
  0.000000000000E+00  0.000000000000E+00  0.000000000000E+00  0.000000000000E+00  0.000000000000E+00
  0.000000000000E+00  0.000000000000E+00  0.000000000000E+00  0.000000000000E+00  0.000000000000E+00
  0.000000000000E+00  0.000000000000E+00  0.000000000000E+00  0.000000000000E+00  0.000000000000E+00
  0.000000000000E+00  0.000000000000E+00  0.000000000000E+00  0.000000000000E+00  0.000000000000E+00
  0.000000000000E+00  0.000000000000E+00
 ae wavefunction
 -0.169402557788E-02 -0.174813035384E-02 -0.180395924557E-02 -0.186156694017E-02 -0.192100984332E-02
 -0.198234613210E-02 -0.204563580973E-02 -0.211094076147E-02 -0.217832481266E-02 -0.224785378788E-02
 -0.231959557250E-02 -0.239362017527E-02 -0.246999979340E-02 -0.254880887898E-02 -0.263012420765E-02
 -0.271402494902E-02 -0.280059273918E-02 -0.288991175523E-02 -0.298206879189E-02 -0.307715334022E-02
 -0.317525766868E-02 -0.327647690617E-02 -0.338090912760E-02 -0.348865544169E-02 -0.359982008108E-02
 -0.371451049506E-02 -0.383283744462E-02 -0.395491510009E-02 -0.408086114143E-02 -0.421079686101E-02
 -0.434484726917E-02 -0.448314120251E-02 -0.462581143490E-02 -0.477299479132E-02 -0.492483226457E-02
 -0.508146913487E-02 -0.524305509239E-02 -0.540974436278E-02 -0.558169583570E-02 -0.575907319634E-02
 -0.594204506010E-02 -0.613078511028E-02 -0.632547223894E-02 -0.652629069085E-02 -0.673343021063E-02
 -0.694708619298E-02 -0.716745983609E-02 -0.739475829825E-02 -0.762919485745E-02 -0.787098907426E-02
 -0.812036695767E-02 -0.837756113401E-02 -0.864281101893E-02 -0.891636299224E-02 -0.919847057566E-02
 -0.948939461337E-02 -0.978940345526E-02 -0.100987731428E-01 -0.104177875972E-01 -0.107467388103E-01
 -0.110859270371E-01 -0.114356609907E-01 -0.117962580389E-01 -0.121680444021E-01 -0.125513553533E-01
 -0.129465354179E-01 -0.133539385756E-01 -0.137739284618E-01 -0.142068785693E-01 -0.146531724498E-01
 -0.151132039146E-01 -0.155873772341E-01 -0.160761073351E-01 -0.165798199963E-01 -0.170989520410E-01
 -0.176339515256E-01 -0.181852779242E-01 -0.187534023083E-01 -0.193388075204E-01 -0.199419883405E-01
 -0.205634516458E-01 -0.212037165606E-01 -0.218633145968E-01 -0.225427897834E-01 -0.232426987831E-01
 -0.239636109959E-01 -0.247061086468E-01 -0.254707868565E-01 -0.262582536949E-01 -0.270691302122E-01
 -0.279040504492E-01 -0.287636614230E-01 -0.296486230856E-01 -0.305596082537E-01 -0.314973025076E-01
 -0.324624040550E-01 -0.334556235586E-01 -0.344776839234E-01 -0.355293200404E-01 -0.366112784842E-01
 -0.377243171600E-01 -0.388692048962E-01 -0.400467209792E-01 -0.412576546254E-01 -0.425028043861E-01
 -0.437829774804E-01 -0.450989890512E-01 -0.464516613381E-01 -0.478418227632E-01 -0.492703069217E-01
 -0.507379514729E-01 -0.522455969231E-01 -0.537940852956E-01 -0.553842586780E-01 -0.570169576416E-01
 -0.586930195224E-01 -0.604132765578E-01 -0.621785538674E-01 -0.639896672715E-01 -0.658474209348E-01
 -0.677526048288E-01 -0.697059919978E-01 -0.717083356232E-01 -0.737603658692E-01 -0.758627865035E-01
 -0.780162712763E-01 -0.802214600494E-01 -0.824789546589E-01 -0.847893145012E-01 -0.871530518273E-01
 -0.895706267321E-01 -0.920424418249E-01 -0.945688365658E-01 -0.971500812562E-01 -0.997863706647E-01
 -0.102477817279E+00 -0.105224444162E+00 -0.108026177410E+00 -0.110882838181E+00 -0.113794134296E+00
 -0.116759651390E+00 -0.119778843605E+00 -0.122851023804E+00 -0.125975353311E+00 -0.129150831143E+00
 -0.132376282752E+00 -0.135650348249E+00 -0.138971470108E+00 -0.142337880356E+00 -0.145747587237E+00
 -0.149198361357E+00 -0.152687721306E+00 -0.156212918779E+00 -0.159770923189E+00 -0.163358405809E+00
 -0.166971723436E+00 -0.170606901629E+00 -0.174259617535E+00 -0.177925182343E+00 -0.181598523422E+00
 -0.185274166171E+00 -0.188946215664E+00 -0.192608338150E+00 -0.196253742480E+00 -0.199875161565E+00
 -0.203464833940E+00 -0.207014485586E+00 -0.210515312087E+00 -0.213957961304E+00 -0.217332516690E+00
 -0.220628481429E+00 -0.223834763590E+00 -0.226939662476E+00 -0.229930856414E+00 -0.232795392218E+00
 -0.235519676577E+00 -0.238089469651E+00 -0.240489881194E+00 -0.242705369491E+00 -0.244719743491E+00
 -0.246516168478E+00 -0.248077175671E+00 -0.249384676175E+00 -0.250419979701E+00 -0.251163818510E+00
 -0.251596377060E+00 -0.251697327829E+00 -0.251445873829E+00 -0.250820798331E+00 -0.249800522316E+00
 -0.248363170201E+00 -0.246486644363E+00 -0.244148709011E+00 -0.241327083919E+00 -0.237999548536E+00
 -0.234144056971E+00 -0.229738864293E+00 -0.224762664589E+00 -0.219194741135E+00 -0.213015128991E+00
 -0.206204790264E+00 -0.198745802182E+00 -0.190621558042E+00 -0.181816980958E+00 -0.172318750230E+00
 -0.162115539995E+00 -0.151198269659E+00 -0.139560365438E+00 -0.127198032119E+00 -0.114110533953E+00
 -0.100300483314E+00 -0.857741355242E-01 -0.705416879155E-01 -0.546175809009E-01 -0.380207984863E-01
 -0.207751653185E-01 -0.290963706050E-02  0.155414193553E-01  0.345379591786E-01  0.540340105685E-01
  0.739774460046E-01  0.943097775725E-01  0.114965979153E+00  0.135874338690E+00  0.156956344349E+00
  0.178126609575E+00  0.199292843700E+00  0.220355876541E+00  0.241209746848E+00  0.261741865116E+00
  0.281833260762E+00  0.301358921822E+00  0.320188232672E+00  0.338185512508E+00  0.355210655602E+00
  0.371119873606E+00  0.385766540488E+00  0.399002140674E+00  0.410677320655E+00  0.420643043179E+00
  0.428751841680E+00  0.434859170879E+00  0.438824848007E+00  0.440514577499E+00  0.439801550603E+00
  0.436568109839E+00  0.430707466657E+00  0.422125458841E+00  0.410742332451E+00  0.396494530889E+00
  0.379336471642E+00  0.359242288881E+00  0.336207517810E+00  0.310250694342E+00  0.281414841467E+00
  0.249768811912E+00  0.215408455298E+00  0.178457577524E+00  0.139068660577E+00  0.974233125766E-01
  0.537324204246E-01  0.823598034001E-02 -0.387974164741E-01 -0.870714664625E-01 -0.136263433170E+00
 -0.186025861333E+00 -0.235988771264E+00 -0.285762368464E+00 -0.334940242751E+00 -0.383102884989E+00
 -0.429821137440E+00 -0.474659047749E+00 -0.517175805278E+00 -0.556927165220E+00 -0.593467728606E+00
 -0.626355648751E+00 -0.655159953358E+00 -0.679468763782E+00 -0.698896462553E+00 -0.713089272792E+00
 -0.721729810843E+00 -0.724541236208E+00 -0.721291254563E+00 -0.711795942905E+00 -0.695923234038E+00
 -0.673595874509E+00 -0.644793708937E+00 -0.609555206349E+00 -0.567978210867E+00 -0.520219944978E+00
 -0.466496325927E+00 -0.407080667830E+00 -0.342301849736E+00 -0.272542027586E+00 -0.198233966200E+00
 -0.119858060725E+00 -0.379391110462E-01  0.469570939426E-01  0.134227334600E+00  0.223234618535E+00
  0.313311903440E+00  0.403765854187E+00  0.493880608465E+00  0.582921529594E+00  0.670138930666E+00
  0.754771761887E+00  0.836051267778E+00  0.913204628483E+00  0.985458635340E+00  0.105204345647E+01
  0.111219657891E+01  0.116516702627E+01  0.121021995306E+01  0.124664171162E+01  0.127374547209E+01
  0.129087746085E+01  0.129742388135E+01  0.129281860475E+01  0.127655177343E+01  0.124817953401E+01
  0.120733517616E+01  0.115374196725E+01  0.108722788931E+01  0.100774232998E+01  0.915374582430E+00
  0.000000000000E+00  0.000000000000E+00  0.000000000000E+00  0.000000000000E+00  0.000000000000E+00
  0.000000000000E+00  0.000000000000E+00  0.000000000000E+00  0.000000000000E+00  0.000000000000E+00
  0.000000000000E+00  0.000000000000E+00  0.000000000000E+00  0.000000000000E+00  0.000000000000E+00
  0.000000000000E+00  0.000000000000E+00  0.000000000000E+00  0.000000000000E+00  0.000000000000E+00
  0.000000000000E+00  0.000000000000E+00  0.000000000000E+00  0.000000000000E+00  0.000000000000E+00
  0.000000000000E+00  0.000000000000E+00  0.000000000000E+00  0.000000000000E+00  0.000000000000E+00
  0.000000000000E+00  0.000000000000E+00
 End of Dataset
  PAW_PBE Te 08Apr2002                   
   6.00000000000000     
 parameters from PSCTR are:
   VRHFIN =Te: s2p4
   LEXCH  = PE
   EATOM  =   223.2721 eV,   16.4100 Ry

   TITEL  = PAW_PBE Te 08Apr2002
   LULTRA =        F    use ultrasoft PP ?
   IUNSCR =        1    unscreen: 0-lin 1-nonlin 2-no
   RPACOR =    2.200    partial core radius
   POMASS =  127.600; ZVAL   =    6.000    mass and valenz
   RCORE  =    2.300    outmost cutoff radius
   RWIGS  =    2.900; RWIGS  =    1.535    wigner-seitz radius (au A)
   ENMAX  =  174.982; ENMIN  =  131.236 eV
   ICORE  =        3    local potential
   LCOR   =        T    correct aug charges
   LPAW   =        T    paw PP
   EAUG   =  368.792
   DEXC   =    0.000
   RMAX   =    2.345    core radius for proj-oper
   RAUG   =    1.300    factor for augmentation sphere
   RDEP   =    2.397    radius for radial grids
   RDEPT  =    2.174    core radius for aug-charge
 
   Atomic configuration
   13 entries
     n  l   j            E        occ.
     1  0  0.50    -31621.2075   2.0000
     2  0  0.50     -4848.7941   2.0000
     2  1  1.50     -4352.1960   6.0000
     3  0  0.50      -964.9612   2.0000
     3  1  1.50      -803.6179   6.0000
     3  2  2.50      -559.8710  10.0000
     4  0  0.50      -164.3522   2.0000
     4  1  1.50      -114.3756   6.0000
     4  2  2.50       -41.6483  10.0000
     5  0  0.50       -15.1072   2.0000
     5  1  0.50        -5.9526   4.0000
     5  2  1.50        -5.4423   0.0000
     4  3  2.50        -5.4423   0.0000
   Description
     l       E           TYP  RCUT    TYP  RCUT
     0    -15.1072389     23  2.300
     0    -16.4678215     23  2.300
     1     -5.9526306     23  2.300
     1     -2.4873968     23  2.300
     2     -5.4423304     23  2.300
     3     -1.3605826     23  2.300
   Error from kinetic energy argument (eV)
   NDATA  =      100
   STEP   =   20.000   1.050
  26.7      24.1      22.8      20.4      19.3      17.2      15.3      14.4
  12.7      11.2      10.5      9.15      7.98      6.94      6.02      5.20
  4.49      3.86      3.32      2.63      2.25      1.92      1.51      1.28
  1.09     0.856     0.672     0.572     0.451     0.356     0.283     0.226
 0.182     0.148     0.121     0.996E-01 0.778E-01 0.652E-01 0.519E-01 0.440E-01
 0.354E-01 0.285E-01 0.230E-01 0.184E-01 0.148E-01 0.118E-01 0.939E-02 0.712E-02
 0.577E-02 0.458E-02 0.381E-02 0.342E-02 0.313E-02 0.296E-02 0.281E-02 0.269E-02
 0.253E-02 0.229E-02 0.200E-02 0.170E-02 0.143E-02 0.119E-02 0.101E-02 0.874E-03
 0.802E-03 0.748E-03 0.703E-03 0.651E-03 0.575E-03 0.501E-03 0.418E-03 0.352E-03
 0.306E-03 0.279E-03 0.258E-03 0.241E-03 0.216E-03 0.187E-03 0.156E-03 0.135E-03
 0.120E-03 0.111E-03 0.103E-03 0.909E-04 0.774E-04 0.659E-04 0.583E-04 0.535E-04
 0.491E-04 0.433E-04 0.365E-04 0.319E-04 0.288E-04 0.266E-04 0.234E-04 0.199E-04
 0.173E-04 0.160E-04 0.144E-04 0.125E-04
END of PSCTR-controll parameters
 local part
   81.2582175088937     
  0.43287524E+01  0.43585095E+01  0.44300409E+01  0.45490556E+01  0.47152452E+01
  0.49281735E+01  0.51872729E+01  0.54918418E+01  0.58410420E+01  0.62338975E+01
  0.66692960E+01  0.71459912E+01  0.76626078E+01  0.82176479E+01  0.88094982E+01
  0.94364392E+01  0.10096653E+02  0.10788231E+02  0.11509184E+02  0.12257449E+02
  0.13030892E+02  0.13827318E+02  0.14644477E+02  0.15480067E+02  0.16331740E+02
  0.17197112E+02  0.18073764E+02  0.18959255E+02  0.19851125E+02  0.20746906E+02
  0.21644128E+02  0.22540329E+02  0.23433062E+02  0.24319900E+02  0.25198447E+02
  0.26066342E+02  0.26921268E+02  0.27760954E+02  0.28583188E+02  0.29385816E+02
  0.30166753E+02  0.30923986E+02  0.31655585E+02  0.32359700E+02  0.33034576E+02
  0.33678549E+02  0.34290059E+02  0.34867647E+02  0.35409962E+02  0.35915765E+02
  0.36383928E+02  0.36813443E+02  0.37203416E+02  0.37553076E+02  0.37861773E+02
  0.38128980E+02  0.38354294E+02  0.38537437E+02  0.38678254E+02  0.38776716E+02
  0.38832916E+02  0.38847068E+02  0.38819505E+02  0.38750680E+02  0.38641159E+02
  0.38491620E+02  0.38302850E+02  0.38075741E+02  0.37811285E+02  0.37510573E+02
  0.37174786E+02  0.36805194E+02  0.36403149E+02  0.35970080E+02  0.35507485E+02
  0.35016930E+02  0.34500037E+02  0.33958480E+02  0.33393982E+02  0.32808300E+02
  0.32203229E+02  0.31580585E+02  0.30942207E+02  0.30289944E+02  0.29625651E+02
  0.28951182E+02  0.28268384E+02  0.27579089E+02  0.26885107E+02  0.26188222E+02
  0.25490184E+02  0.24792704E+02  0.24097448E+02  0.23406032E+02  0.22720016E+02
  0.22040900E+02  0.21370119E+02  0.20709041E+02  0.20058960E+02  0.19421094E+02
  0.18796581E+02  0.18186480E+02  0.17591762E+02  0.17013314E+02  0.16451935E+02
  0.15908336E+02  0.15383137E+02  0.14876869E+02  0.14389976E+02  0.13922810E+02
  0.13475636E+02  0.13048634E+02  0.12641897E+02  0.12255438E+02  0.11889186E+02
  0.11542996E+02  0.11216645E+02  0.10909841E+02  0.10622222E+02  0.10353364E+02
  0.10102781E+02  0.98699339E+01  0.96542299E+01  0.94550309E+01  0.92716561E+01
  0.91033876E+01  0.89494749E+01  0.88091398E+01  0.86815809E+01  0.85659790E+01
  0.84615017E+01  0.83673078E+01  0.82825525E+01  0.82063918E+01  0.81379867E+01
  0.80765077E+01  0.80211387E+01  0.79710810E+01  0.79255568E+01  0.78838128E+01
  0.78451231E+01  0.78087922E+01  0.77741579E+01  0.77405932E+01  0.77075091E+01
  0.76743557E+01  0.76406244E+01  0.76058487E+01  0.75696053E+01  0.75315150E+01
  0.74912425E+01  0.74484970E+01  0.74030318E+01  0.73546435E+01  0.73031720E+01
  0.72484990E+01  0.71905468E+01  0.71292772E+01  0.70646900E+01  0.69968207E+01
  0.69257391E+01  0.68515470E+01  0.67743758E+01  0.66943842E+01  0.66117561E+01
  0.65266972E+01  0.64394334E+01  0.63502074E+01  0.62592763E+01  0.61669090E+01
  0.60733837E+01  0.59789847E+01  0.58840008E+01  0.57887219E+01  0.56934372E+01
  0.55984324E+01  0.55039880E+01  0.54103765E+01  0.53178611E+01  0.52266936E+01
  0.51371126E+01  0.50493420E+01  0.49635899E+01  0.48800473E+01  0.47988869E+01
  0.47202627E+01  0.46443089E+01  0.45711397E+01  0.45008489E+01  0.44335096E+01
  0.43691744E+01  0.43078755E+01  0.42496249E+01  0.41944153E+01  0.41422199E+01
  0.40929943E+01  0.40466762E+01  0.40031873E+01  0.39624339E+01  0.39243083E+01
  0.38886899E+01  0.38554465E+01  0.38244358E+01  0.37955067E+01  0.37685006E+01
  0.37432530E+01  0.37195952E+01  0.36973550E+01  0.36763590E+01  0.36564333E+01
  0.36374056E+01  0.36191058E+01  0.36013675E+01  0.35840296E+01  0.35669368E+01
  0.35499409E+01  0.35329016E+01  0.35156877E+01  0.34981775E+01  0.34802595E+01
  0.34618330E+01  0.34428089E+01  0.34231093E+01  0.34026685E+01  0.33814326E+01
  0.33593601E+01  0.33364211E+01  0.33125978E+01  0.32878837E+01  0.32622837E+01
  0.32358134E+01  0.32084986E+01  0.31803748E+01  0.31514865E+01  0.31218868E+01
  0.30916360E+01  0.30608015E+01  0.30294568E+01  0.29976802E+01  0.29655545E+01
  0.29331658E+01  0.29006027E+01  0.28679554E+01  0.28353147E+01  0.28027713E+01
  0.27704149E+01  0.27383335E+01  0.27066125E+01  0.26753340E+01  0.26445763E+01
  0.26144131E+01  0.25849130E+01  0.25561390E+01  0.25281481E+01  0.25009908E+01
  0.24747108E+01  0.24493449E+01  0.24249225E+01  0.24014662E+01  0.23789907E+01
  0.23575038E+01  0.23370060E+01  0.23174908E+01  0.22989449E+01  0.22813484E+01
  0.22646750E+01  0.22488928E+01  0.22339643E+01  0.22198468E+01  0.22064932E+01
  0.21938523E+01  0.21818694E+01  0.21704868E+01  0.21596446E+01  0.21492807E+01
  0.21393323E+01  0.21297354E+01  0.21204265E+01  0.21113420E+01  0.21024198E+01
  0.20935989E+01  0.20848206E+01  0.20760285E+01  0.20671691E+01  0.20581924E+01
  0.20490518E+01  0.20397050E+01  0.20301136E+01  0.20202440E+01  0.20100671E+01
  0.19995588E+01  0.19886998E+01  0.19774756E+01  0.19658770E+01  0.19538993E+01
  0.19415430E+01  0.19288129E+01  0.19157188E+01  0.19022743E+01  0.18884976E+01
  0.18744104E+01  0.18600380E+01  0.18454091E+01  0.18305549E+01  0.18155095E+01
  0.18003088E+01  0.17849905E+01  0.17695936E+01  0.17541582E+01  0.17387246E+01
  0.17233335E+01  0.17080252E+01  0.16928394E+01  0.16778148E+01  0.16629887E+01
  0.16483970E+01  0.16340732E+01  0.16200489E+01  0.16063528E+01  0.15930113E+01
  0.15800474E+01  0.15674812E+01  0.15553296E+01  0.15436059E+01  0.15323204E+01
  0.15214795E+01  0.15110865E+01  0.15011411E+01  0.14916397E+01  0.14825754E+01
  0.14739383E+01  0.14657151E+01  0.14578901E+01  0.14504447E+01  0.14433578E+01
  0.14366063E+01  0.14301649E+01  0.14240069E+01  0.14181040E+01  0.14124269E+01
  0.14069453E+01  0.14016284E+01  0.13964453E+01  0.13913648E+01  0.13863562E+01
  0.13813894E+01  0.13764350E+01  0.13714647E+01  0.13664515E+01  0.13613700E+01
  0.13561965E+01  0.13509093E+01  0.13454888E+01  0.13399174E+01  0.13341801E+01
  0.13282643E+01  0.13221597E+01  0.13158588E+01  0.13093564E+01  0.13026499E+01
  0.12957395E+01  0.12886275E+01  0.12813188E+01  0.12738206E+01  0.12661423E+01
  0.12582954E+01  0.12502932E+01  0.12421509E+01  0.12338851E+01  0.12255140E+01
  0.12170569E+01  0.12085339E+01  0.11999660E+01  0.11913748E+01  0.11827822E+01
  0.11742101E+01  0.11656806E+01  0.11572151E+01  0.11488348E+01  0.11405601E+01
  0.11324106E+01  0.11244047E+01  0.11165597E+01  0.11088914E+01  0.11014141E+01
  0.10941407E+01  0.10870821E+01  0.10802476E+01  0.10736447E+01  0.10672787E+01
  0.10611533E+01  0.10552701E+01  0.10496290E+01  0.10442277E+01  0.10390623E+01
  0.10341269E+01  0.10294142E+01  0.10249150E+01  0.10206188E+01  0.10165135E+01
  0.10125860E+01  0.10088219E+01  0.10052060E+01  0.10017221E+01  0.99835365E+00
  0.99508338E+00  0.99189382E+00  0.98876729E+00  0.98568617E+00  0.98263301E+00
  0.97959066E+00  0.97654252E+00  0.97347258E+00  0.97036564E+00  0.96720742E+00
  0.96398465E+00  0.96068520E+00  0.95729819E+00  0.95381404E+00  0.95022453E+00
  0.94652288E+00  0.94270377E+00  0.93876337E+00  0.93469937E+00  0.93051094E+00
  0.92619876E+00  0.92176495E+00  0.91721307E+00  0.91254801E+00  0.90777597E+00
  0.90290437E+00  0.89794172E+00  0.89289754E+00  0.88778228E+00  0.88260716E+00
  0.87738408E+00  0.87212546E+00  0.86684418E+00  0.86155337E+00  0.85626636E+00
  0.85099650E+00  0.84575702E+00  0.84056097E+00  0.83542100E+00  0.83034933E+00
  0.82535758E+00  0.82045668E+00  0.81565677E+00  0.81096714E+00  0.80639611E+00
  0.80195099E+00  0.79763802E+00  0.79346234E+00  0.78942792E+00  0.78553758E+00
  0.78179292E+00  0.77819439E+00  0.77474122E+00  0.77143149E+00  0.76826217E+00
  0.76522909E+00  0.76232711E+00  0.75955005E+00  0.75689088E+00  0.75434173E+00
  0.75189399E+00  0.74953842E+00  0.74726520E+00  0.74506409E+00  0.74292448E+00
  0.74083550E+00  0.73878615E+00  0.73676537E+00  0.73476216E+00  0.73276570E+00
  0.73076541E+00  0.72875111E+00  0.72671305E+00  0.72464202E+00  0.72252945E+00
  0.72036744E+00  0.71814887E+00  0.71586741E+00  0.71351760E+00  0.71109487E+00
  0.70859557E+00  0.70601700E+00  0.70335743E+00  0.70061609E+00  0.69779318E+00
  0.69488982E+00  0.69190809E+00  0.68885094E+00  0.68572218E+00  0.68252641E+00
  0.67926898E+00  0.67595590E+00  0.67259382E+00  0.66918991E+00  0.66575179E+00
  0.66228749E+00  0.65880534E+00  0.65531387E+00  0.65182176E+00  0.64833775E+00
  0.64487052E+00  0.64142867E+00  0.63802055E+00  0.63465426E+00  0.63133753E+00
  0.62807764E+00  0.62488141E+00  0.62175506E+00  0.61870424E+00  0.61573393E+00
  0.61284842E+00  0.61005126E+00  0.60734526E+00  0.60473247E+00  0.60221413E+00
  0.59979071E+00  0.59746187E+00  0.59522652E+00  0.59308278E+00  0.59102807E+00
  0.58905909E+00  0.58717188E+00  0.58536187E+00  0.58362395E+00  0.58195247E+00
  0.58034136E+00  0.57878416E+00  0.57727407E+00  0.57580406E+00  0.57436691E+00
  0.57295525E+00  0.57156171E+00  0.57017891E+00  0.56879959E+00  0.56741662E+00
  0.56602315E+00  0.56461258E+00  0.56317870E+00  0.56171568E+00  0.56021816E+00
  0.55868129E+00  0.55710075E+00  0.55547279E+00  0.55379428E+00  0.55206269E+00
  0.55027614E+00  0.54843342E+00  0.54653395E+00  0.54457783E+00  0.54256580E+00
  0.54049922E+00  0.53838008E+00  0.53621097E+00  0.53399498E+00  0.53173577E+00
  0.52943743E+00  0.52710449E+00  0.52474186E+00  0.52235476E+00  0.51994870E+00
  0.51752940E+00  0.51510275E+00  0.51267471E+00  0.51025133E+00  0.50783861E+00
  0.50544248E+00  0.50306875E+00  0.50072303E+00  0.49841067E+00  0.49613674E+00
  0.49390599E+00  0.49172277E+00  0.48959099E+00  0.48751416E+00  0.48549527E+00
  0.48353683E+00  0.48164083E+00  0.47980869E+00  0.47804134E+00  0.47633910E+00
  0.47470178E+00  0.47312863E+00  0.47161837E+00  0.47016920E+00  0.46877883E+00
  0.46744452E+00  0.46616309E+00  0.46493097E+00  0.46374422E+00  0.46259860E+00
  0.46148959E+00  0.46041243E+00  0.45936219E+00  0.45833380E+00  0.45732211E+00
  0.45632192E+00  0.45532806E+00  0.45433541E+00  0.45333897E+00  0.45233392E+00
  0.45131562E+00  0.45027969E+00  0.44922204E+00  0.44813891E+00  0.44702687E+00
  0.44588289E+00  0.44470435E+00  0.44348904E+00  0.44223520E+00  0.44094152E+00
  0.43960718E+00  0.43823178E+00  0.43681544E+00  0.43535872E+00  0.43386262E+00
  0.43232859E+00  0.43075851E+00  0.42915462E+00  0.42751957E+00  0.42585629E+00
  0.42416807E+00  0.42245843E+00  0.42073113E+00  0.41899015E+00  0.41723959E+00
  0.41548370E+00  0.41372678E+00  0.41197316E+00  0.41022718E+00  0.40849310E+00
  0.40677509E+00  0.40507718E+00  0.40340322E+00  0.40175686E+00  0.40014149E+00
  0.39856024E+00  0.39701592E+00  0.39551102E+00  0.39404769E+00  0.39262771E+00
  0.39125249E+00  0.38992305E+00  0.38864001E+00  0.38740358E+00  0.38621357E+00
  0.38506942E+00  0.38397016E+00  0.38291445E+00  0.38190059E+00  0.38092657E+00
  0.37999005E+00  0.37908840E+00  0.37821873E+00  0.37737795E+00  0.37656273E+00
  0.37576961E+00  0.37499497E+00  0.37423511E+00  0.37348627E+00  0.37274465E+00
  0.37200649E+00  0.37126805E+00  0.37052569E+00  0.36977591E+00  0.36901534E+00
  0.36824080E+00  0.36744934E+00  0.36663822E+00  0.36580499E+00  0.36494746E+00
  0.36406376E+00  0.36315230E+00  0.36221186E+00  0.36124152E+00  0.36024073E+00
  0.35920927E+00  0.35814727E+00  0.35705520E+00  0.35593387E+00  0.35478440E+00
  0.35360822E+00  0.35240706E+00  0.35118289E+00  0.34993796E+00  0.34867471E+00
  0.34739580E+00  0.34610405E+00  0.34480242E+00  0.34349398E+00  0.34218190E+00
  0.34086938E+00  0.33955964E+00  0.33825591E+00  0.33696135E+00  0.33567904E+00
  0.33441198E+00  0.33316300E+00  0.33193479E+00  0.33072985E+00  0.32955046E+00
  0.32839869E+00  0.32727636E+00  0.32618502E+00  0.32512595E+00  0.32410017E+00
  0.32310836E+00  0.32215096E+00  0.32122805E+00  0.32033946E+00  0.31948469E+00
  0.31866298E+00  0.31787326E+00  0.31711422E+00  0.31638430E+00  0.31568170E+00
  0.31500442E+00  0.31435026E+00  0.31371685E+00  0.31310168E+00  0.31250212E+00
  0.31191545E+00  0.31133885E+00  0.31076951E+00  0.31020455E+00  0.30964116E+00
  0.30907653E+00  0.30850794E+00  0.30793277E+00  0.30734852E+00  0.30675281E+00
  0.30614347E+00  0.30551847E+00  0.30487600E+00  0.30421447E+00  0.30353251E+00
  0.30282898E+00  0.30210302E+00  0.30135399E+00  0.30058153E+00  0.29978555E+00
  0.29896621E+00  0.29812393E+00  0.29725939E+00  0.29637350E+00  0.29546740E+00
  0.29454246E+00  0.29360023E+00  0.29264246E+00  0.29167106E+00  0.29068808E+00
  0.28969571E+00  0.28869622E+00  0.28769198E+00  0.28668542E+00  0.28567899E+00
  0.28467515E+00  0.28367637E+00  0.28268504E+00  0.28170352E+00  0.28073405E+00
  0.27977879E+00  0.27883976E+00  0.27791884E+00  0.27701772E+00  0.27613796E+00
  0.27528088E+00  0.27444765E+00  0.27363917E+00  0.27285618E+00  0.27209914E+00
  0.27136833E+00  0.27066376E+00  0.26998522E+00  0.26933229E+00  0.26870430E+00
  0.26810041E+00  0.26751954E+00  0.26696044E+00  0.26642169E+00  0.26590169E+00
  0.26539873E+00  0.26491095E+00  0.26443639E+00  0.26397299E+00  0.26351865E+00
  0.26307117E+00  0.26262839E+00  0.26218808E+00  0.26174808E+00  0.26130623E+00
  0.26086046E+00  0.26040876E+00  0.25994923E+00  0.25948007E+00  0.25899963E+00
  0.25850640E+00  0.25799902E+00  0.25747630E+00  0.25693725E+00  0.25638104E+00
  0.25580705E+00  0.25521486E+00  0.25460425E+00  0.25397521E+00  0.25332793E+00
  0.25266279E+00  0.25198039E+00  0.25128149E+00  0.25056704E+00  0.24983815E+00
  0.24909607E+00  0.24834221E+00  0.24757810E+00  0.24680537E+00  0.24602575E+00
  0.24524104E+00  0.24445311E+00  0.24366385E+00  0.24287521E+00  0.24208910E+00
  0.24130743E+00  0.24053207E+00  0.23976484E+00  0.23900747E+00  0.23826163E+00
  0.23752886E+00  0.23681058E+00  0.23610810E+00  0.23542258E+00  0.23475501E+00
  0.23410624E+00  0.23347695E+00  0.23286764E+00  0.23227864E+00  0.23171009E+00
  0.23116194E+00  0.23063398E+00  0.23012582E+00  0.22963688E+00  0.22916644E+00
  0.22871361E+00  0.22827735E+00  0.22785651E+00  0.22744980E+00  0.22705582E+00
  0.22667310E+00  0.22630005E+00  0.22593504E+00  0.22557639E+00  0.22522238E+00
  0.22487128E+00  0.22452135E+00  0.22417089E+00  0.22381820E+00  0.22346168E+00
  0.22309976E+00  0.22273097E+00  0.22235393E+00  0.22196737E+00  0.22157014E+00
  0.22116121E+00  0.22073970E+00  0.22030486E+00  0.21985610E+00  0.21939298E+00
  0.21891523E+00  0.21842274E+00  0.21791554E+00  0.21739385E+00  0.21685804E+00
  0.21630863E+00  0.21574627E+00  0.21517178E+00  0.21458606E+00  0.21399018E+00
  0.21338529E+00  0.21277262E+00  0.21215351E+00  0.21152936E+00  0.21090162E+00
  0.21027180E+00  0.20964141E+00  0.20901201E+00  0.20838511E+00  0.20776223E+00
  0.20714486E+00  0.20653441E+00  0.20593225E+00  0.20533968E+00  0.20475789E+00
  0.20418799E+00  0.20363097E+00  0.20308772E+00  0.20255900E+00  0.20204542E+00
  0.20154748E+00  0.20106553E+00  0.20059977E+00  0.20015027E+00  0.19971694E+00
  0.19929954E+00  0.19889772E+00  0.19851097E+00  0.19813864E+00  0.19778000E+00
  0.19743416E+00  0.19710017E+00  0.19677695E+00  0.19646336E+00  0.19615818E+00
  0.19586012E+00  0.19556787E+00  0.19528004E+00  0.19499527E+00  0.19471214E+00
  0.19442929E+00  0.19414533E+00  0.19385893E+00  0.19356882E+00  0.19327376E+00
  0.19297260E+00  0.19266427E+00  0.19234776E+00  0.19202221E+00  0.19168683E+00
  0.19134094E+00  0.19098400E+00  0.19061557E+00  0.19023537E+00  0.18984322E+00
  0.18943907E+00  0.18902303E+00  0.18859532E+00  0.18815628E+00  0.18770637E+00
  0.18724619E+00  0.18677642E+00  0.18629786E+00  0.18581138E+00  0.18531795E+00
  0.18481861E+00  0.18431445E+00  0.18380664E+00  0.18329638E+00  0.18278487E+00
  0.18227337E+00  0.18176313E+00  0.18125537E+00  0.18075133E+00  0.18025217E+00
  0.17975906E+00  0.17927305E+00  0.17879519E+00  0.17832640E+00  0.17786756E+00
  0.17741943E+00  0.17698268E+00  0.17655790E+00  0.17614554E+00  0.17574596E+00
  0.17535939E+00  0.17498594E+00  0.17462563E+00  0.17427833E+00  0.17394381E+00
  0.17362171E+00  0.17331159E+00  0.17301288E+00  0.17272493E+00  0.17244700E+00
  0.17217826E+00  0.17191782E+00  0.17166471E+00  0.17141792E+00  0.17117638E+00
  0.17093899E+00  0.17070464E+00  0.17047219E+00  0.17024049E+00  0.17000843E+00
  0.16977489E+00  0.16953880E+00  0.16929914E+00  0.16905492E+00  0.16880522E+00
  0.16854921E+00  0.16828609E+00  0.16801520E+00  0.16773592E+00  0.16744775E+00
  0.16715029E+00  0.16684323E+00  0.16652636E+00  0.16619961E+00  0.16586299E+00
 gradient corrections used for XC
           5
 core charge-density (partial)
  0.32970131E+01  0.32952689E+01  0.32900415E+01  0.32813471E+01  0.32692124E+01
  0.32536748E+01  0.32347818E+01  0.32125911E+01  0.31871701E+01  0.31585957E+01
  0.31269537E+01  0.30923385E+01  0.30548528E+01  0.30146065E+01  0.29717168E+01
  0.29263073E+01  0.28785076E+01  0.28284522E+01  0.27762806E+01  0.27221359E+01
  0.26661648E+01  0.26085164E+01  0.25493421E+01  0.24887943E+01  0.24270265E+01
  0.23641919E+01  0.23004435E+01  0.22359331E+01  0.21708107E+01  0.21052244E+01
  0.20393192E+01  0.19732371E+01  0.19071166E+01  0.18410919E+01  0.17752927E+01
  0.17098443E+01  0.16448664E+01  0.15804736E+01  0.15167748E+01  0.14538730E+01
  0.13918653E+01  0.13308427E+01  0.12708897E+01  0.12120847E+01  0.11544996E+01
  0.10982002E+01  0.10432457E+01  0.98968898E+00  0.93757692E+00  0.88695013E+00
  0.83784325E+00  0.79028507E+00  0.74429866E+00  0.69990159E+00  0.65710609E+00
  0.61591928E+00  0.57634335E+00  0.53837584E+00  0.50200984E+00  0.46723425E+00
  0.43403400E+00  0.40239035E+00  0.37228112E+00  0.34368093E+00  0.31656147E+00
  0.29089177E+00  0.26663844E+00  0.24376588E+00  0.22223661E+00  0.20201141E+00
  0.18304963E+00  0.16530936E+00  0.14874770E+00  0.13332090E+00  0.11898463E+00
  0.10569414E+00  0.93404442E-01  0.82070476E-01  0.71647293E-01  0.62090197E-01
  0.53354886E-01  0.45397589E-01  0.38175190E-01  0.31645337E-01  0.25766545E-01
  0.20498293E-01  0.15801106E-01  0.11636625E-01  0.79676795E-02  0.47583374E-02
  0.19739558E-02 -0.41878099E-03 -0.24518293E-02 -0.41557628E-02 -0.55597554E-02
 -0.66915719E-02 -0.75775645E-02 -0.82426752E-02 -0.87104447E-02 -0.90030256E-02
 -0.91412013E-02 -0.91444087E-02 -0.90307655E-02 -0.88171010E-02 -0.85189901E-02
 -0.81507907E-02 -0.77256832E-02 -0.72557124E-02 -0.67518318E-02 -0.62239486E-02
 -0.56809709E-02 -0.51308552E-02 -0.45806550E-02 -0.40365695E-02 -0.35039929E-02
 -0.29875633E-02 -0.24912114E-02 -0.20182086E-02 -0.15712147E-02 -0.11523243E-02
 -0.76311286E-03 -0.40468062E-03 -0.77696071E-04  0.21756243E-03  0.48116648E-03
  0.71349902E-03  0.91521750E-03  0.10872187E-02  0.12306053E-02  0.13466545E-02
  0.14367885E-02  0.15025462E-02  0.15455578E-02  0.15675205E-02  0.15701763E-02
  0.15552919E-02  0.15246395E-02  0.14799808E-02  0.14230511E-02  0.13555465E-02
  0.12791116E-02  0.11953292E-02  0.11057119E-02  0.10116942E-02  0.91462647E-03
  0.81577030E-03  0.71629472E-03  0.61727367E-03  0.51968447E-03  0.42440728E-03
  0.33222537E-03  0.24382623E-03  0.15980343E-03  0.80659025E-04  0.68066451E-05
 -0.61424989E-04 -0.12378809E-03 -0.18011146E-03 -0.23029588E-03 -0.27430918E-03
 -0.31218124E-03 -0.34399876E-03 -0.36989999E-03 -0.39006949E-03 -0.40473278E-03
 -0.41415119E-03 -0.41861667E-03 -0.41844685E-03 -0.41398016E-03 -0.40557121E-03
 -0.39358631E-03 -0.37839931E-03 -0.36038756E-03 -0.33992829E-03 -0.31739512E-03
 -0.29315493E-03 -0.26756499E-03 -0.24097038E-03 -0.21370172E-03 -0.18607315E-03
 -0.15838063E-03 -0.13090047E-03 -0.10388824E-03 -0.77577756E-04 -0.52180530E-04
 -0.27885290E-04 -0.48578139E-05  0.16759046E-04  0.36845140E-04  0.55302618E-04
  0.72055351E-04  0.87048208E-04  0.10024619E-03  0.11163346E-03  0.12121223E-03
  0.12900163E-03  0.13503641E-03  0.13936567E-03  0.14205153E-03  0.14316768E-03
  0.14279808E-03  0.14103549E-03  0.13798014E-03  0.13373833E-03  0.12842109E-03
  0.12214291E-03  0.11502048E-03  0.10717149E-03  0.98713531E-04  0.89762981E-04
  0.80434067E-04  0.70837932E-04  0.61081809E-04  0.51268275E-04  0.41494589E-04
  0.31852113E-04  0.22425819E-04  0.13293886E-04  0.45273694E-05 -0.38100412E-05
 -0.11662185E-04 -0.18980523E-04 -0.25724152E-04 -0.31859755E-04 -0.37361491E-04
 -0.42210812E-04 -0.46396240E-04 -0.49913089E-04 -0.52763137E-04 -0.54954263E-04
 -0.56500056E-04 -0.57419379E-04 -0.57735927E-04 -0.57477751E-04 -0.56676782E-04
 -0.55368332E-04 -0.53590605E-04 -0.51384194E-04 -0.48791599E-04 -0.45856735E-04
 -0.42624470E-04 -0.39140163E-04 -0.35449236E-04 -0.31596752E-04 -0.27627030E-04
 -0.23583278E-04 -0.19507261E-04 -0.15438990E-04 -0.11416447E-04 -0.74753434E-05
 -0.36489067E-05  0.32300692E-07  0.35405274E-05  0.68509487E-05  0.99417505E-05
  0.12794183E-04  0.15392582E-04  0.17724368E-04  0.19780011E-04  0.21552973E-04
  0.23039627E-04  0.24239156E-04  0.25153428E-04  0.25786851E-04  0.26146223E-04
  0.26240556E-04  0.26080891E-04  0.25680112E-04  0.25052739E-04  0.24214729E-04
  0.23183261E-04  0.21976528E-04  0.20613530E-04  0.19113862E-04  0.17497511E-04
  0.15784662E-04  0.13995501E-04  0.12150038E-04  0.10267930E-04  0.83683191E-05
  0.64696846E-05  0.45897017E-05  0.27451180E-05  0.95164140E-06 -0.77615707E-06
 -0.24249265E-05 -0.39826049E-05 -0.54384737E-05 -0.67831976E-05 -0.80088514E-05
 -0.91089319E-05 -0.10078358E-04 -0.10913456E-04 -0.11611936E-04 -0.12172856E-04
 -0.12596573E-04 -0.12884687E-04 -0.13039977E-04 -0.13066327E-04 -0.12968645E-04
 -0.12752781E-04 -0.12425430E-04 -0.11994046E-04 -0.11466735E-04 -0.10852164E-04
 -0.10159453E-04 -0.93980827E-05 -0.85777877E-05 -0.77084622E-05 -0.68000636E-05
 -0.58625202E-05 -0.49056425E-05 -0.39390393E-05 -0.29720389E-05 -0.20136153E-05
 -0.10723214E-05 -0.15622743E-06  0.72713332E-06  0.15708120E-05  0.23684847E-05
  0.31144863E-05  0.38038360E-05  0.44322574E-05  0.49961902E-05  0.54927957E-05
  0.59199556E-05  0.62762644E-05  0.65610156E-05  0.67741825E-05  0.69163932E-05
  0.69889013E-05  0.69935513E-05  0.69327407E-05  0.68093784E-05  0.66268394E-05
  0.63889184E-05  0.60997794E-05  0.57639058E-05  0.53860482E-05  0.49711716E-05
  0.45244037E-05  0.40509823E-05  0.35562045E-05  0.30453765E-05  0.25237657E-05
  0.19965543E-05  0.14687957E-05  0.94537334E-06  0.43096232E-06 -0.70005232E-07
 -0.55337200E-06 -0.10152834E-05 -0.14522122E-05 -0.18609788E-05 -0.22387683E-05
 -0.25831436E-05 -0.28920541E-05 -0.31638419E-05 -0.33972427E-05 -0.35913846E-05
 -0.37457823E-05 -0.38603293E-05 -0.39352852E-05 -0.39712622E-05 -0.39692073E-05
 -0.39303827E-05 -0.38563443E-05 -0.37489180E-05 -0.36101741E-05 -0.34424009E-05
 -0.32480766E-05 -0.30298415E-05 -0.27904679E-05 -0.25328319E-05 -0.22598833E-05
 -0.19746170E-05 -0.16800443E-05 -0.13791657E-05 -0.10749436E-05 -0.77027713E-06
 -0.46797786E-06 -0.17074732E-06  0.11884395E-06  0.39837547E-06  0.66559394E-06
  0.91842832E-06  0.11550028E-05  0.13736478E-05  0.15729083E-05  0.17515506E-05
  0.19085666E-05  0.20431757E-05  0.21548253E-05  0.22431882E-05  0.23081592E-05
  0.23498489E-05  0.23685765E-05  0.23648601E-05  0.23394067E-05  0.22930994E-05
  0.22269845E-05  0.21422573E-05  0.20402465E-05  0.19223986E-05  0.17902611E-05
  0.16454654E-05  0.14897101E-05  0.13247432E-05  0.11523451E-05  0.97431181E-06
  0.79243767E-06  0.60849982E-06  0.42424241E-06  0.24136187E-06  0.61492989E-07
 -0.11380402E-06 -0.28305544E-06 -0.44488486E-06 -0.59802277E-06 -0.74131495E-06
 -0.87372958E-06 -0.99436303E-06 -0.11024444E-05 -0.11973386E-05 -0.12785484E-05
 -0.13457147E-05 -0.13986164E-05 -0.14371680E-05 -0.14614166E-05 -0.14715381E-05
 -0.14678317E-05 -0.14507141E-05 -0.14207120E-05 -0.13784545E-05 -0.13246650E-05
 -0.12601513E-05 -0.11857965E-05 -0.11025491E-05 -0.10114120E-05 -0.91343283E-06
 -0.80969242E-06 -0.70129476E-06 -0.58935618E-06 -0.47499495E-06 -0.35932117E-06
 -0.24342700E-06 -0.12837725E-06 -0.15200539E-07  0.95119022E-07  0.20164950E-06
  0.30351816E-06  0.39991775E-06  0.49011207E-06  0.57344068E-06  0.64932289E-06
  0.71726088E-06  0.77684197E-06  0.82774019E-06  0.86971684E-06  0.90262044E-06
  0.92638579E-06  0.94103229E-06  0.94666160E-06  0.94345457E-06  0.93166755E-06
  0.91162816E-06  0.88373048E-06  0.84842977E-06  0.80623682E-06  0.75771191E-06
  0.70345851E-06  0.64411670E-06  0.58035649E-06  0.51287104E-06  0.44236978E-06
  0.36957162E-06  0.29519822E-06  0.21996744E-06  0.14458693E-06  0.69747997E-07
 -0.38801739E-08 -0.75656048E-07 -0.14497082E-06 -0.21125308E-06 -0.27397308E-06
 -0.33264643E-06 -0.38683737E-06 -0.43616151E-06 -0.48028802E-06 -0.51894129E-06
 -0.55190210E-06 -0.57900817E-06 -0.60015427E-06 -0.61529178E-06 -0.62442771E-06
 -0.62762336E-06 -0.62499239E-06 -0.61669856E-06 -0.60295304E-06 -0.58401137E-06
 -0.56017008E-06 -0.53176305E-06 -0.49915759E-06 -0.46275034E-06 -0.42296299E-06
 -0.38023788E-06 -0.33503353E-06 -0.28782011E-06 -0.23907493E-06 -0.18927798E-06
 -0.13890749E-06 -0.88435741E-07 -0.38324855E-07  0.10977073E-07  0.59039715E-07
  0.10545397E-06  0.14983518E-06  0.19182598E-06  0.23109895E-06  0.26735886E-06
  0.30034455E-06  0.32983056E-06  0.35562830E-06  0.37758692E-06  0.39559382E-06
  0.40957478E-06  0.41949373E-06  0.42535226E-06  0.42718871E-06  0.42507700E-06
  0.41912517E-06  0.40947361E-06  0.39629310E-06  0.37978256E-06  0.36016663E-06
  0.33769306E-06  0.31262999E-06  0.28526302E-06  0.25589230E-06  0.22482948E-06
  0.19239462E-06  0.15891316E-06  0.12471282E-06  0.90120642E-07  0.55460003E-07
  0.21047818E-07 -0.12808189E-07 -0.45812064E-07 -0.77682031E-07 -0.10815272E-06
 -0.13697722E-06 -0.16392888E-06 -0.18880293E-06 -0.21141784E-06 -0.23161649E-06
 -0.24926702E-06 -0.26426348E-06 -0.27652624E-06 -0.28600217E-06 -0.29266448E-06
 -0.29651247E-06 -0.29757094E-06 -0.29588943E-06 -0.29154125E-06 -0.28462230E-06
 -0.27524977E-06 -0.26356056E-06 -0.24970969E-06 -0.23386851E-06 -0.21622276E-06
 -0.19697067E-06 -0.17632084E-06 -0.15449019E-06 -0.13170180E-06 -0.10818278E-06
 -0.84162143E-07 -0.59868680E-07 -0.35528923E-07 -0.11365135E-07  0.12406604E-07
  0.35578217E-07  0.57951343E-07  0.79338929E-07  0.99566679E-07  0.11847437E-06
  0.13591701E-06  0.15176584E-06  0.16590913E-06  0.17825290E-06  0.18872136E-06
  0.19725723E-06  0.20382190E-06  0.20839538E-06  0.21097614E-06  0.21158070E-06
  0.21024316E-06  0.20701452E-06  0.20196186E-06  0.19516748E-06  0.18672779E-06
  0.17675216E-06  0.16536171E-06  0.15268799E-06  0.13887152E-06  0.12406042E-06
  0.10840887E-06  0.92075628E-07  0.75222505E-07  0.58012832E-07  0.40609964E-07
  0.23175807E-07  0.58693829E-08 -0.11154548E-07 -0.27746800E-07 -0.43765000E-07
 -0.59074736E-07 -0.73550622E-07 -0.87077247E-07 -0.99550027E-07 -0.11087594E-06
 -0.12097414E-06 -0.12977645E-06 -0.13722774E-06 -0.14328616E-06 -0.14792328E-06
 -0.15112409E-06 -0.15288685E-06 -0.15322288E-06 -0.15215621E-06 -0.14972312E-06
 -0.14597154E-06 -0.14096046E-06 -0.13475914E-06 -0.12744633E-06 -0.11910933E-06
 -0.10984309E-06 -0.99749175E-07 -0.88934757E-07 -0.77511507E-07 -0.65594527E-07
 -0.53301238E-07 -0.40750281E-07 -0.28060420E-07 -0.15349471E-07 -0.27332567E-08
  0.96754051E-08  0.21767660E-07  0.33439530E-07  0.44592756E-07  0.55135585E-07
  0.64983476E-07  0.74059728E-07  0.82296032E-07  0.89632931E-07  0.96020196E-07
  0.10141711E-06  0.10579266E-06  0.10912566E-06  0.11140471E-06  0.11262818E-06
  0.11280403E-06  0.11194955E-06  0.11009105E-06  0.10726344E-06  0.10350978E-06
  0.98880761E-07  0.93434056E-07  0.87233725E-07  0.80349499E-07  0.72856056E-07
  0.64832258E-07  0.56360361E-07  0.47525218E-07  0.38413461E-07  0.29112693E-07
  0.19710677E-07  0.10294542E-07  0.95000823E-09 -0.82393626E-08 -0.17192883E-07
 -0.25833416E-07 -0.34088012E-07 -0.41888491E-07 -0.49171975E-07 -0.55881364E-07
 -0.61965749E-07 -0.67380763E-07 -0.72088870E-07 -0.76059585E-07 -0.79269621E-07
 -0.81702983E-07 -0.83350980E-07 -0.84212180E-07 -0.84292294E-07 -0.83604007E-07
 -0.82166741E-07 -0.80006360E-07 -0.77154833E-07 -0.73649835E-07 -0.69534314E-07
 -0.64856008E-07 -0.59666938E-07 -0.54022862E-07 -0.47982707E-07 -0.41607988E-07
 -0.34962204E-07 -0.28110236E-07 -0.21117732E-07 -0.14050507E-07 -0.69739441E-08
  0.47590469E-10  0.69513077E-08  0.13676538E-07  0.20165244E-07  0.26362497E-07
  0.32216926E-07  0.37681117E-07  0.42711979E-07  0.47271056E-07  0.51324804E-07
  0.54844806E-07  0.57807945E-07  0.60196529E-07  0.61998355E-07  0.63206732E-07
  0.63820449E-07  0.63843699E-07  0.63285947E-07  0.62161761E-07  0.60490599E-07
  0.58296547E-07  0.55608032E-07  0.52457492E-07  0.48881017E-07  0.44917965E-07
  0.40610554E-07  0.36003432E-07  0.31143238E-07  0.26078144E-07  0.20857401E-07
  0.15530873E-07  0.10148578E-07  0.47602328E-08 -0.58518703E-09 -0.58398820E-08
 -0.10957639E-07 -0.15894224E-07 -0.20607747E-07 -0.25059009E-07 -0.29211804E-07
 -0.33033208E-07 -0.36493816E-07 -0.39567955E-07 -0.42233856E-07 -0.44473790E-07
 -0.46274162E-07 -0.47625569E-07 -0.48522820E-07 -0.48964914E-07 -0.48954986E-07
 -0.48500212E-07 -0.47611679E-07 -0.46304227E-07 -0.44596254E-07 -0.42509497E-07
 -0.40068779E-07 -0.37301739E-07 -0.34238541E-07 -0.30911559E-07 -0.27355052E-07
 -0.23604824E-07 -0.19697879E-07 -0.15672066E-07 -0.11565726E-07 -0.74173379E-08
 -0.32651678E-08  0.85307199E-09  0.49005554E-08  0.88416616E-08  0.12642278E-07
  0.16270084E-07  0.19694819E-07  0.22888519E-07  0.25825739E-07  0.28483739E-07
  0.30842655E-07  0.32885629E-07  0.34598916E-07  0.35971965E-07  0.36997462E-07
  0.37671348E-07  0.37992807E-07  0.37964225E-07  0.37591119E-07  0.36882039E-07
  0.35848450E-07  0.34504578E-07  0.32867247E-07  0.30955682E-07  0.28791304E-07
  0.26397502E-07  0.23799391E-07  0.21023563E-07  0.18097823E-07  0.15050917E-07
  0.11912265E-07  0.87116803E-08  0.54790951E-08  0.22442898E-08 -0.96337395E-09
 -0.41152130E-08 -0.71834710E-08 -0.10141556E-07 -0.12964262E-07 -0.15627979E-07
 -0.18110881E-07 -0.20393095E-07 -0.22456856E-07 -0.24286635E-07 -0.25869245E-07
 -0.27193929E-07 -0.28252417E-07 -0.29038971E-07 -0.29550396E-07 -0.29786030E-07
 -0.29747719E-07 -0.29439761E-07 -0.28868829E-07 -0.28043883E-07 -0.26976049E-07
 -0.25678494E-07 -0.24166273E-07 -0.22456167E-07 -0.20566507E-07 -0.18516989E-07
 -0.16328471E-07 -0.14022774E-07 -0.11622465E-07 -0.91506483E-08 -0.66307465E-08
 -0.40862841E-08 -0.15406745E-08  0.98299040E-09  0.34621437E-08  0.58749401E-08
  0.82004434E-08  0.10418802E-07  0.12511413E-07  0.14461075E-07  0.16252117E-07
  0.17870529E-07  0.19304055E-07  0.20542285E-07  0.21576722E-07  0.22400830E-07
  0.23010068E-07  0.23401904E-07  0.23575806E-07  0.23533222E-07  0.23277540E-07
  0.22814027E-07  0.22149759E-07  0.21293530E-07  0.20255750E-07  0.19048327E-07
  0.17684540E-07  0.16178900E-07  0.14547004E-07  0.12805373E-07  0.10971297E-07
  0.90626648E-08  0.70977956E-08  0.50952659E-08  0.30737395E-08  0.10517977E-08
 -0.95222778E-09 -0.29204169E-08 -0.48354175E-08 -0.66805943E-08 -0.84401692E-08
 -0.10099353E-07 -0.11644464E-07 -0.13063039E-07 -0.14343926E-07 -0.15477372E-07
 -0.16455087E-07 -0.17270302E-07 -0.17917810E-07 -0.18393991E-07 -0.18696824E-07
 -0.18825883E-07 -0.18782320E-07 -0.18568835E-07 -0.18189627E-07 -0.17650340E-07
 -0.16957991E-07 -0.16120887E-07 -0.15148538E-07 -0.14051548E-07 -0.12841508E-07
 -0.11530882E-07 -0.10132876E-07 -0.86613114E-08 -0.71304958E-08 -0.55550821E-08
 -0.39499342E-08 -0.23299894E-08 -0.71012278E-09  0.89498685E-09  0.24709865E-08
  0.40039748E-08  0.54806211E-08  0.68882791E-08  0.82150916E-08  0.94500877E-08
  0.10583270E-07  0.11605692E-07  0.12509528E-07  0.13288122E-07  0.13936043E-07
  0.14449110E-07  0.14824415E-07  0.15060337E-07  0.15156534E-07  0.15113936E-07
  0.14934715E-07  0.14622249E-07  0.14181083E-07  0.13616865E-07  0.12936284E-07
  0.12146996E-07  0.11257545E-07  0.10277268E-07  0.92162080E-08  0.80850093E-08
  0.68948151E-08  0.56571609E-08  0.43838646E-08  0.30869166E-08  0.17783690E-08
  0.47022608E-09 -0.82566348E-09 -0.20977118E-08 -0.33346933E-08 -0.45258412E-08
 -0.56609393E-08 -0.67304073E-08 -0.77253791E-08 -0.86377743E-08 -0.94603610E-08
 -0.10186811E-07 -0.10811744E-07 -0.11330767E-07 -0.11740499E-07 -0.12038592E-07
 -0.12223736E-07 -0.12295659E-07 -0.12255117E-07 -0.12103874E-07 -0.11844676E-07
 -0.11481209E-07 -0.11018057E-07 -0.10460650E-07 -0.98152042E-08 -0.90886541E-08
 -0.82885833E-08 -0.74231468E-08 -0.65009906E-08 -0.55311676E-08 -0.45230505E-08
 -0.34862435E-08 -0.24304924E-08 -0.13655951E-08 -0.30131212E-09  0.75272085E-09
  0.17870787E-08  0.27926292E-08  0.37606125E-08  0.46827150E-08  0.55511397E-08
  0.63586699E-08  0.70987275E-08  0.77654249E-08  0.83536094E-08  0.88589013E-08
  0.92777237E-08  0.96073253E-08  0.98457956E-08  0.99920714E-08  0.10045937E-07
  0.10008014E-07  0.98797486E-08  0.96633869E-08  0.93619445E-08  0.89791710E-08
  0.85195071E-08  0.79880358E-08  0.73904295E-08  0.67328911E-08  0.60220916E-08
 kinetic energy density (partial)
  0.31618065E+03  0.31601961E+03  0.31553695E+03  0.31473409E+03  0.31361337E+03
  0.31217806E+03  0.31043234E+03  0.30838127E+03  0.30603077E+03  0.30338760E+03
  0.30045931E+03  0.29725422E+03  0.29378138E+03  0.29005050E+03  0.28607194E+03
  0.28185666E+03  0.27741614E+03  0.27276234E+03  0.26790767E+03  0.26286492E+03
  0.25764719E+03  0.25226784E+03  0.24674048E+03  0.24107882E+03  0.23529672E+03
  0.22940807E+03  0.22342674E+03  0.21736657E+03  0.21124126E+03  0.20506439E+03
  0.19884930E+03  0.19260912E+03  0.18635667E+03  0.18010445E+03  0.17386461E+03
  0.16764889E+03  0.16146860E+03  0.15533462E+03  0.14925734E+03  0.14324663E+03
  0.13731189E+03  0.13146194E+03  0.12570508E+03  0.12004905E+03  0.11450102E+03
  0.10906760E+03  0.10375484E+03  0.98568186E+02  0.93512561E+02  0.88592306E+02
  0.83811213E+02  0.79172532E+02  0.74678983E+02  0.70332765E+02  0.66135575E+02
  0.62088623E+02  0.58192647E+02  0.54447934E+02  0.50854341E+02  0.47411311E+02
  0.44117898E+02  0.40972785E+02  0.37974311E+02  0.35120489E+02  0.32409033E+02
  0.29837375E+02  0.27402695E+02  0.25101936E+02  0.22931835E+02  0.20888937E+02
  0.18969621E+02  0.17170122E+02  0.15486551E+02  0.13914912E+02  0.12451127E+02
  0.11091052E+02  0.98304932E+01  0.86652290E+01  0.75910223E+01  0.66036383E+01
  0.56988582E+01  0.48724941E+01  0.41204010E+01  0.34384892E+01  0.28227357E+01
  0.22691942E+01  0.17740042E+01  0.13333998E+01  0.94371717E+00  0.60140120E+00
  0.30301130E+00  0.45226517E-01 -0.17515024E+00 -0.36118871E+00 -0.51582858E+00
 -0.64187737E+00 -0.74200914E+00 -0.81876375E+00 -0.87454667E+00 -0.91162951E+00
 -0.93215095E+00 -0.93811818E+00 -0.93140890E+00 -0.91377359E+00 -0.88683831E+00
 -0.85210772E+00 -0.81096851E+00 -0.76469308E+00 -0.71444342E+00 -0.66127527E+00
 -0.60614240E+00 -0.54990106E+00 -0.49331457E+00 -0.43705797E+00 -0.38172271E+00
 -0.32782142E+00 -0.27579267E+00 -0.22600571E+00 -0.17876517E+00 -0.13431576E+00
 -0.92846772E-01 -0.54496655E-01 -0.19357334E-01  0.12521498E-01  0.41128261E-01
  0.66485504E-01  0.88646078E-01  0.10768947E+00  0.12371831E+00  0.13685505E+00
  0.14723882E+00  0.15502249E+00  0.16036988E+00  0.16345317E+00  0.16445054E+00
  0.16354391E+00  0.16091694E+00  0.15675317E+00  0.15123436E+00  0.14453897E+00
  0.13684084E+00  0.12830800E+00  0.11910171E+00  0.10937551E+00  0.99274586E-01
  0.88935113E-01  0.78483836E-01  0.68037717E-01  0.57703711E-01  0.47578643E-01
  0.37749188E-01  0.28291926E-01  0.19273494E-01  0.10750798E-01  0.27712979E-02
 -0.46266535E-02 -0.11413422E-01 -0.17567657E-01 -0.23075825E-01 -0.27931707E-01
 -0.32135882E-01 -0.35695183E-01 -0.38622148E-01 -0.40934465E-01 -0.42654410E-01
 -0.43808294E-01 -0.44425916E-01 -0.44540024E-01 -0.44185797E-01 -0.43400340E-01
 -0.42222200E-01 -0.40690909E-01 -0.38846548E-01 -0.36729339E-01 -0.34379268E-01
 -0.31835733E-01 -0.29137226E-01 -0.26321042E-01 -0.23423026E-01 -0.20477336E-01
 -0.17516258E-01 -0.14570030E-01 -0.11666709E-01 -0.88320630E-02 -0.60894872E-02
 -0.34599503E-02 -0.96196455E-03  0.13884211E-02  0.35776049E-02  0.55943966E-02
  0.74299626E-02  0.90777536E-02  0.10533417E-01  0.11794698E-01  0.12861321E-01
  0.13734875E-01  0.14418673E-01  0.14917619E-01  0.15238061E-01  0.15387646E-01
  0.15375168E-01  0.15210416E-01  0.14904029E-01  0.14467340E-01  0.13912235E-01
  0.13251012E-01  0.12496240E-01  0.11660631E-01  0.10756915E-01  0.97977215E-02
  0.87954713E-02  0.77622745E-02  0.67098383E-02  0.56493828E-02  0.45915671E-02
  0.35464234E-02  0.25233016E-02  0.15308221E-02  0.57683836E-03 -0.33159188E-03
 -0.11882267E-02 -0.19876519E-02 -0.27252844E-02 -0.33973685E-02 -0.40009654E-02
 -0.45339348E-02 -0.49949118E-02 -0.53832773E-02 -0.56991239E-02 -0.59432167E-02
 -0.61169507E-02 -0.62223052E-02 -0.62617943E-02 -0.62384164E-02 -0.61556017E-02
 -0.60171581E-02 -0.58272173E-02 -0.55901803E-02 -0.53106638E-02 -0.49934466E-02
 -0.46434185E-02 -0.42655297E-02 -0.38647425E-02 -0.34459863E-02 -0.30141134E-02
 -0.25738592E-02 -0.21298049E-02 -0.16863432E-02 -0.12476474E-02 -0.81764463E-03
 -0.39999161E-03  0.19452567E-05  0.38510663E-03  0.74675328E-03  0.10844757E-02
  0.13962002E-02  0.16801921E-02  0.19350553E-02  0.21597289E-02  0.23534815E-02
  0.25159021E-02  0.26468891E-02  0.27466370E-02  0.28156207E-02  0.28545784E-02
  0.28644930E-02  0.28465718E-02  0.28022253E-02  0.27330454E-02  0.26407825E-02
  0.25273226E-02  0.23946641E-02  0.22448946E-02  0.20801680E-02  0.19026818E-02
  0.17146556E-02  0.15183095E-02  0.13158443E-02  0.11094219E-02  0.90114790E-03
  0.69305447E-03  0.48708520E-03  0.28508125E-03  0.88768999E-04 -0.10025078E-03
 -0.28051207E-03 -0.45069130E-03 -0.60961328E-03 -0.75625570E-03 -0.88975201E-03
 -0.10093928E-02 -0.11146256E-02 -0.12050536E-02 -0.12804328E-02 -0.13406676E-02
 -0.13858060E-02 -0.14160334E-02 -0.14316647E-02 -0.14331367E-02 -0.14209992E-02
 -0.13959052E-02 -0.13586012E-02 -0.13099160E-02 -0.12507509E-02 -0.11820678E-02
 -0.11048783E-02 -0.10202327E-02 -0.92920906E-03 -0.83290186E-03 -0.73241184E-03
 -0.62883559E-03 -0.52325581E-03 -0.41673203E-03 -0.31029183E-03 -0.20492284E-03
 -0.10156519E-03 -0.11049176E-05  0.95632116E-04  0.18788538E-03  0.27496411E-03
  0.35625097E-03  0.43120487E-03  0.49936303E-03  0.56034226E-03  0.61383947E-03
  0.65963143E-03  0.69757389E-03  0.72759994E-03  0.74971776E-03  0.76400787E-03
  0.77061967E-03  0.76976762E-03  0.76172697E-03  0.74682899E-03  0.72545599E-03
  0.69803604E-03  0.66503739E-03  0.62696284E-03  0.58434392E-03  0.53773505E-03
  0.48770775E-03  0.43484477E-03  0.37973449E-03  0.32296534E-03  0.26512050E-03
  0.20677275E-03  0.14847969E-03  0.90779152E-04  0.34185076E-04 -0.20816376E-04
 -0.73770257E-04 -0.12425589E-03 -0.17188949E-03 -0.21632644E-03 -0.25726302E-03
 -0.29443782E-03 -0.32763265E-03 -0.35667309E-03 -0.38142858E-03 -0.40181214E-03
 -0.41777972E-03 -0.42932913E-03 -0.43649872E-03 -0.43936564E-03 -0.43804391E-03
 -0.43268212E-03 -0.42346100E-03 -0.41059068E-03 -0.39430789E-03 -0.37487286E-03
 -0.35256629E-03 -0.32768608E-03 -0.30054411E-03 -0.27146293E-03 -0.24077255E-03
 -0.20880713E-03 -0.17590191E-03 -0.14239007E-03 -0.10859980E-03 -0.74851496E-04
 -0.41455084E-04 -0.87075516E-05  0.23109337E-04  0.53731119E-04  0.82912486E-04
  0.11042891E-03  0.13607803E-03  0.15968080E-03  0.18108239E-03  0.20015284E-03
  0.21678748E-03  0.23090707E-03  0.24245780E-03  0.25141094E-03  0.25776237E-03
  0.26153186E-03  0.26276216E-03  0.26151795E-03  0.25788454E-03  0.25196654E-03
  0.24388627E-03  0.23378217E-03  0.22180705E-03  0.20812626E-03  0.19291585E-03
  0.17636064E-03  0.15865230E-03  0.13998738E-03  0.12056543E-03  0.10058709E-03
  0.80252221E-04  0.59758128E-04  0.39297862E-04  0.19058580E-04 -0.77997501E-06
 -0.20046889E-04 -0.38581371E-04 -0.56233916E-04 -0.72867336E-04 -0.88357654E-04
 -0.10259484E-03 -0.11548344E-03 -0.12694296E-03 -0.13690826E-03 -0.14532965E-03
 -0.15217290E-03 -0.15741917E-03 -0.16106469E-03 -0.16312039E-03 -0.16361143E-03
 -0.16257651E-03 -0.16006718E-03 -0.15614703E-03 -0.15089074E-03 -0.14438315E-03
 -0.13671816E-03 -0.12799765E-03 -0.11833037E-03 -0.10783071E-03 -0.96617556E-04
 -0.84813078E-04 -0.72541523E-04 -0.59928046E-04 -0.47097548E-04 -0.34173552E-04
 -0.21277123E-04 -0.85258348E-05  0.39671979E-05  0.16094227E-04  0.27753703E-04
  0.38851030E-04  0.49299235E-04  0.59019559E-04  0.67941949E-04  0.76005461E-04
  0.83158581E-04  0.89359432E-04  0.94575911E-04  0.98785719E-04  0.10197631E-03
  0.10414474E-03  0.10529748E-03  0.10545005E-03  0.10462672E-03  0.10285999E-03
  0.10019016E-03  0.96664685E-04  0.92337639E-04  0.87268999E-04  0.81523978E-04
  0.75172294E-04  0.68287429E-04  0.60945862E-04  0.53226305E-04  0.45208935E-04
  0.36974626E-04  0.28604204E-04  0.20177715E-04  0.11773718E-04  0.34686129E-05
 -0.46639975E-05 -0.12553906E-04 -0.20134850E-04 -0.27345017E-04 -0.34127492E-04
 -0.40430652E-04 -0.46208505E-04 -0.51420966E-04 -0.56034079E-04 -0.60020167E-04
 -0.63357941E-04 -0.66032524E-04 -0.68035443E-04 -0.69364538E-04 -0.70023841E-04
 -0.70023378E-04 -0.69378944E-04 -0.68111816E-04 -0.66248428E-04 -0.63820013E-04
 -0.60862199E-04 -0.57414588E-04 -0.53520300E-04 -0.49225496E-04 -0.44578894E-04
 -0.39631264E-04 -0.34434919E-04 -0.29043206E-04 -0.23510002E-04 -0.17889207E-04
 -0.12234262E-04 -0.65976715E-05 -0.10305518E-05  0.44177992E-05  0.97003070E-05
  0.14772495E-04  0.19592825E-04  0.24123011E-04  0.28328283E-04  0.32177627E-04
  0.35643977E-04  0.38704371E-04  0.41340063E-04  0.43536597E-04  0.45283843E-04
  0.46575986E-04  0.47411484E-04  0.47792981E-04  0.47727196E-04  0.47224761E-04
  0.46300044E-04  0.44970931E-04  0.43258587E-04  0.41187187E-04  0.38783637E-04
  0.36077263E-04  0.33099495E-04  0.29883534E-04  0.26464013E-04  0.22876651E-04
  0.19157907E-04  0.15344633E-04  0.11473730E-04  0.75818153E-05  0.37048956E-05
 -0.12194474E-06 -0.38648418E-05 -0.74914318E-05 -0.10971111E-04 -0.14275276E-04
 -0.17377538E-04 -0.20253914E-04 -0.22882990E-04 -0.25246066E-04 -0.27327259E-04
 -0.29113589E-04 -0.30595038E-04 -0.31764572E-04 -0.32618143E-04 -0.33154663E-04
 -0.33375949E-04 -0.33286645E-04 -0.32894122E-04 -0.32208351E-04 -0.31241758E-04
 -0.30009064E-04 -0.28527094E-04 -0.26814592E-04 -0.24892001E-04 -0.22781249E-04
 -0.20505515E-04 -0.18088997E-04 -0.15556668E-04 -0.12934036E-04 -0.10246901E-04
 -0.75211163E-05 -0.47823519E-05 -0.20558670E-05  0.63371058E-06  0.32625944E-05
  0.58080374E-05  0.82485167E-05  0.10563903E-04  0.12735615E-04  0.14746756E-04
  0.16582231E-04  0.18228849E-04  0.19675403E-04  0.20912729E-04  0.21933751E-04
  0.22733503E-04  0.23309128E-04  0.23659863E-04  0.23787005E-04  0.23693857E-04
  0.23385658E-04  0.22869498E-04  0.22154213E-04  0.21250276E-04  0.20169664E-04
  0.18925724E-04  0.17533022E-04  0.16007189E-04  0.14364759E-04  0.12622996E-04
  0.10799732E-04  0.89131881E-05  0.69818023E-05  0.50240615E-05  0.30583303E-05
  0.11026886E-05 -0.82522741E-06 -0.27083759E-05 -0.45304520E-05 -0.62760216E-05
 -0.79306439E-05 -0.94809831E-05 -0.10914908E-04 -0.12221577E-04 -0.13391515E-04
 -0.14416670E-04 -0.15290458E-04 -0.16007799E-04 -0.16565128E-04 -0.16960404E-04
 -0.17193097E-04 -0.17264163E-04 -0.17176009E-04 -0.16932443E-04 -0.16538612E-04
 -0.16000933E-04 -0.15327008E-04 -0.14525534E-04 -0.13606202E-04 -0.12579595E-04
 -0.11457071E-04 -0.10250647E-04 -0.89728783E-05 -0.76367349E-05 -0.62554759E-05
 -0.48425240E-05 -0.34113413E-05 -0.19753062E-05 -0.54759433E-06  0.85893743E-06
  0.22318613E-05  0.35592831E-05  0.48299406E-05  0.60332934E-05  0.71596053E-05
  0.82000178E-05  0.91466143E-05  0.99924745E-05  0.10731719E-04  0.11359544E-04
  0.11872243E-04  0.12267225E-04  0.12543013E-04  0.12699241E-04  0.12736633E-04
  0.12656982E-04  0.12463110E-04  0.12158827E-04  0.11748878E-04  0.11238880E-04
  0.10635263E-04  0.99451878E-05  0.91764770E-05  0.83375262E-05  0.74372207E-05
  0.64848454E-05  0.54899941E-05  0.44624766E-05  0.34122268E-05  0.23492096E-05
  0.12833311E-05  0.22434929E-06 -0.81821157E-06 -0.18351430E-05 -0.28176302E-05
 -0.37573251E-05 -0.46464136E-05 -0.54776773E-05 -0.62445482E-05 -0.69411571E-05
 -0.75623744E-05 -0.81038441E-05 -0.85620096E-05 -0.89341319E-05 -0.92183008E-05
 -0.94134376E-05 -0.95192905E-05 -0.95364230E-05 -0.94661944E-05 -0.93107343E-05
 -0.90729098E-05 -0.87562871E-05 -0.83650872E-05 -0.79041367E-05 -0.73788134E-05
 -0.67949889E-05 -0.61589665E-05 -0.54774168E-05 -0.47573116E-05 -0.40058550E-05
 -0.32304150E-05 -0.24384531E-05 -0.16374561E-05 -0.83486718E-06 -0.38019579E-07
  0.74592811E-06  0.15100538E-05  0.22477308E-05  0.29526825E-05  0.36190340E-05
  0.42413581E-05  0.48147173E-05  0.53347003E-05  0.57974534E-05  0.61997061E-05
  0.65387908E-05  0.68126577E-05  0.70198824E-05  0.71596693E-05  0.72318479E-05
  0.72368644E-05  0.71757676E-05  0.70501893E-05  0.68623204E-05  0.66148814E-05
  0.63110897E-05  0.59546223E-05  0.55495746E-05  0.51004171E-05  0.46119484E-05
  0.40892467E-05  0.35376193E-05  0.29625508E-05  0.23696503E-05  0.17645992E-05
  0.11530978E-05  0.54081420E-06 -0.66667110E-07 -0.66389428E-06 -0.12455954E-05
 -0.18067233E-05 -0.23424978E-05 -0.28484448E-05 -0.33204317E-05 -0.37546996E-05
 -0.41478916E-05 -0.44970764E-05 -0.47997686E-05 -0.50539439E-05 -0.52580502E-05
 -0.54110144E-05 -0.55122444E-05 -0.55616272E-05 -0.55595221E-05 -0.55067501E-05
 -0.54045797E-05 -0.52547077E-05 -0.50592379E-05 -0.48206552E-05 -0.45417974E-05
 -0.42258240E-05 -0.38761825E-05 -0.34965730E-05 -0.30909104E-05 -0.26632859E-05
 -0.22179271E-05 -0.17591578E-05 -0.12913569E-05 -0.81891857E-06 -0.34621164E-06
  0.12245932E-06  0.58289204E-06  0.10310231E-05  0.14629626E-05  0.18750266E-05
  0.22637677E-05  0.26260023E-05  0.29588359E-05  0.32596842E-05  0.35262925E-05
  0.37567511E-05  0.39495069E-05  0.41033725E-05  0.42175314E-05  0.42915398E-05
  0.43253249E-05  0.43191801E-05  0.42737570E-05  0.41900539E-05  0.40694018E-05
  0.39134472E-05  0.37241324E-05  0.35036740E-05  0.32545382E-05  0.29794151E-05
  0.26811907E-05  0.23629183E-05  0.20277880E-05  0.16790958E-05  0.13202126E-05
  0.95455190E-06  0.58553885E-06  0.21657874E-06 -0.14897350E-06 -0.50784290E-06
 -0.85686302E-06 -0.11930030E-05 -0.15133930E-05 -0.18153479E-05 -0.20963890E-05
 -0.23542634E-05 -0.25869610E-05 -0.27927295E-05 -0.29700862E-05 -0.31178279E-05
 -0.32350372E-05 -0.33210875E-05 -0.33756436E-05 -0.33986612E-05 -0.33903830E-05
 -0.33513320E-05 -0.32823031E-05 -0.31843521E-05 -0.30587820E-05 -0.29071280E-05
 -0.27311401E-05 -0.25327645E-05 -0.23141225E-05 -0.20774897E-05 -0.18252724E-05
 -0.15599845E-05 -0.12842227E-05 -0.10006423E-05 -0.71193211E-06 -0.42078952E-06
 -0.12989607E-06  0.15810666E-06  0.44064042E-06  0.71521272E-06  0.97943826E-06
  0.12310590E-05  0.14679629E-05  0.16882009E-05  0.18900023E-05  0.20717886E-05
  0.22321846E-05  0.23700287E-05  0.24843797E-05  0.25745229E-05  0.26399731E-05
  0.26804761E-05  0.26960073E-05  0.26867693E-05  0.26531867E-05  0.25958992E-05
  0.25157527E-05  0.24137890E-05  0.22912339E-05  0.21494829E-05  0.19900869E-05
  0.18147357E-05  0.16252407E-05  0.14235172E-05  0.12115653E-05  0.99145074E-06
  0.76528530E-06  0.53520705E-06  0.30336059E-06  0.71877567E-07 -0.15714249E-06
 -0.38165074E-06 -0.59966691E-06 -0.80929631E-06 -0.10087459E-05 -0.11963390E-05
 -0.13705291E-05 -0.15299122E-05 -0.16732372E-05 -0.17994156E-05 -0.19075291E-05
 -0.19968355E-05 -0.20667732E-05 -0.21169640E-05 -0.21472137E-05 -0.21575117E-05
 -0.21480287E-05 -0.21191127E-05 -0.20712832E-05 -0.20052247E-05 -0.19217781E-05
 -0.18219308E-05 -0.17068062E-05 -0.15776516E-05 -0.14358251E-05 -0.12827819E-05
 -0.11200602E-05 -0.94926557E-06 -0.77205602E-06 -0.59012603E-06 -0.40519082E-06
 -0.21897051E-06 -0.33174453E-07  0.15051405E-06  0.33045274E-06  0.50505467E-06
  0.67280192E-06  0.83225845E-06  0.98208202E-06  0.11210352E-05  0.12479950E-05
  0.13619620E-05  0.14620675E-05  0.15475796E-05  0.16179084E-05  0.16726093E-05
  0.17113852E-05  0.17340875E-05  0.17407150E-05  0.17314127E-05  0.17064683E-05
  0.16663076E-05  0.16114891E-05  0.15426974E-05  0.14607349E-05  0.13665136E-05
  0.12610450E-05  0.11454300E-05  0.10208475E-05  0.88854302E-06  0.74981624E-06
  0.60600889E-06  0.45849183E-06  0.30865235E-06  0.15788138E-06  0.75608231E-08
 -0.14094884E-06 -0.28632059E-06 -0.42727251E-06 -0.56257882E-06 -0.69108026E-06
 -0.81169381E-06 -0.92342149E-06 -0.10253584E-05 -0.11166998E-05 -0.11967469E-05
 -0.12649123E-05 -0.13207236E-05 -0.13638263E-05 -0.13939857E-05 -0.14110874E-05
 -0.14151369E-05 -0.14062581E-05 -0.13846907E-05 -0.13507865E-05 -0.13050051E-05
 -0.12479080E-05 -0.11801527E-05 -0.11024853E-05 -0.10157327E-05 -0.92079413E-06
 -0.81863208E-06 -0.71026293E-06 -0.59674695E-06 -0.47917824E-06 -0.35867435E-06
 -0.23636589E-06 -0.11338613E-06  0.91392818E-08  0.13010248E-06  0.24842316E-06
  0.36305805E-06  0.47300992E-06  0.57733604E-06  0.67515610E-06  0.76565941E-06
  0.84811142E-06  0.92185946E-06  0.98633766E-06  0.10410711E-05  0.10856788E-05
  0.11198764E-05  0.11434773E-05  0.11563934E-05  0.11586345E-05  0.11503071E-05
  0.11316124E-05  0.11028433E-05  0.10643807E-05  0.10166887E-05  0.96030997E-06
  0.89585932E-06  0.82401766E-06  0.74552492E-06  0.66117263E-06  0.57179618E-06
 atomic pseudo charge-density
  0.60000000E+01  0.59866607E+01  0.59468313E+01  0.58810730E+01  0.57903027E+01
  0.56757674E+01  0.55390090E+01  0.53818231E+01  0.52062125E+01  0.50143371E+01
  0.48084639E+01  0.45909168E+01  0.43640303E+01  0.41301058E+01  0.38913738E+01
  0.36499612E+01  0.34078646E+01  0.31669300E+01  0.29288375E+01  0.26950927E+01
  0.24670215E+01  0.22457705E+01  0.20323097E+01  0.18274396E+01  0.16317994E+01
  0.14458775E+01  0.12700231E+01  0.11044583E+01  0.94929089E+00  0.80452673E+00
  0.67008224E+00  0.54579618E+00  0.43144090E+00  0.32673291E+00  0.23134264E+00
  0.14490341E+00  0.67019572E-01 -0.27260978E-02 -0.64765886E-01 -0.11954129E+00
 -0.16749793E+00 -0.20908108E+00 -0.24473184E+00 -0.27488388E+00 -0.29996067E+00
 -0.32037323E+00 -0.33651824E+00 -0.34877663E+00 -0.35751238E+00 -0.36307179E+00
 -0.36578283E+00 -0.36595492E+00 -0.36387876E+00 -0.35982639E+00 -0.35405148E+00
 -0.34678961E+00 -0.33825875E+00 -0.32865979E+00 -0.31817719E+00 -0.30697960E+00
 -0.29522061E+00 -0.28303946E+00 -0.27056181E+00 -0.25790051E+00 -0.24515634E+00
 -0.23241881E+00 -0.21976688E+00 -0.20726973E+00 -0.19498740E+00 -0.18297155E+00
 -0.17126612E+00 -0.15990789E+00 -0.14892719E+00 -0.13834840E+00 -0.12819052E+00
 -0.11846768E+00 -0.10918964E+00 -0.10036224E+00 -0.91987792E-01 -0.84065518E-01
 -0.76591899E-01 -0.69561017E-01 -0.62964871E-01 -0.56793672E-01 -0.51036108E-01
 -0.45679588E-01 -0.40710471E-01 -0.36114267E-01 -0.31875823E-01 -0.27979493E-01
 -0.24409291E-01 -0.21149022E-01 -0.18182411E-01 -0.15493207E-01 -0.13065279E-01
 -0.10882702E-01 -0.89298327E-02 -0.71913679E-02 -0.56524043E-02 -0.42984821E-02
 -0.31156244E-02 -0.20903688E-02 -0.12097922E-02 -0.46153001E-03  0.16620970E-03
  0.68463743E-03  0.11043773E-02  0.14354665E-02  0.16873575E-02  0.18689242E-02
  0.19884702E-02  0.20537395E-02  0.20719300E-02  0.20497074E-02  0.19932222E-02
  0.19081267E-02  0.17995941E-02  0.16723373E-02  0.15306297E-02  0.13783252E-02
  0.12188794E-02  0.10553705E-02  0.89052089E-03  0.72671742E-03  0.56603296E-03
  0.41024673E-03  0.26086463E-03  0.11913908E-03 -0.13911673E-04 -0.13748468E-03
 -0.25097412E-03 -0.35395372E-03 -0.44615986E-03 -0.52747532E-03 -0.59791384E-03
 -0.65760532E-03 -0.70678182E-03 -0.74576430E-03 -0.77495012E-03 -0.79480126E-03
 -0.80583333E-03 -0.80860530E-03 -0.80370994E-03 -0.79176504E-03 -0.77340525E-03
 -0.74927466E-03 -0.72002000E-03 -0.68628453E-03 -0.64870254E-03 -0.60789439E-03
 -0.56446220E-03 -0.51898605E-03 -0.47202069E-03 -0.42409280E-03 -0.37569864E-03
 -0.32730223E-03 -0.27933385E-03 -0.23218904E-03 -0.18622788E-03 -0.14177462E-03
 -0.99117644E-04 -0.58509729E-04 -0.20168515E-04  0.15722741E-04  0.49014228E-04
  0.79588439E-04  0.10735887E-03  0.13226858E-03  0.15428861E-03  0.17341631E-03
  0.18967363E-03  0.20310520E-03  0.21377656E-03  0.22177221E-03  0.22719367E-03
  0.23015764E-03  0.23079398E-03  0.22924393E-03  0.22565820E-03  0.22019518E-03
  0.21301922E-03  0.20429892E-03  0.19420551E-03  0.18291138E-03  0.17058857E-03
  0.15740745E-03  0.14353545E-03  0.12913589E-03  0.11436694E-03  0.99380637E-04
  0.84322021E-04  0.69328392E-04  0.54528645E-04  0.40042719E-04  0.25981138E-04
  0.12444652E-04 -0.47602522E-06 -0.12700392E-04 -0.24158247E-04 -0.34789691E-04
 -0.44545051E-04 -0.53384736E-04 -0.61279012E-04 -0.68207725E-04 -0.74159957E-04
 -0.79133632E-04 -0.83135078E-04 -0.86178535E-04 -0.88285643E-04 -0.89484887E-04
 -0.89811018E-04 -0.89304462E-04 -0.88010703E-04 -0.85979668E-04 -0.83265098E-04
 -0.79923925E-04 -0.76015656E-04 -0.71601757E-04 -0.66745063E-04 -0.61509194E-04
 -0.55958002E-04 -0.50155030E-04 -0.44163012E-04 -0.38043393E-04 -0.31855880E-04
 -0.25658036E-04 -0.19504899E-04 -0.13448644E-04 -0.75382824E-05 -0.18193958E-05
  0.36660875E-05  0.88800782E-05  0.13788474E-04  0.18361270E-04  0.22572627E-04
  0.26400913E-04  0.29828698E-04  0.32842724E-04  0.35433839E-04  0.37596902E-04
  0.39330657E-04  0.40637587E-04  0.41523734E-04  0.41998510E-04  0.42074475E-04
  0.41767112E-04  0.41094573E-04  0.40077426E-04  0.38738386E-04  0.37102037E-04
  0.35194559E-04  0.33043437E-04  0.30677187E-04  0.28125076E-04  0.25416843E-04
  0.22582433E-04  0.19651740E-04  0.16654351E-04  0.13619313E-04  0.10574907E-04
  0.75484360E-05  0.45660319E-05  0.16524776E-05 -0.11689537E-05 -0.38766406E-05
 -0.64507368E-05 -0.88732753E-05 -0.11128254E-04 -0.13201699E-04 -0.15081717E-04
 -0.16758516E-04 -0.18224420E-04 -0.19473857E-04 -0.20503335E-04 -0.21311400E-04
 -0.21898577E-04 -0.22267298E-04 -0.22421816E-04 -0.22368108E-04 -0.22113763E-04
 -0.21667867E-04 -0.21040869E-04 -0.20244453E-04 -0.19291390E-04 -0.18195398E-04
 -0.16970991E-04 -0.15633325E-04 -0.14198055E-04 -0.12681176E-04 -0.11098877E-04
 -0.94673986E-05 -0.78028862E-05 -0.61212578E-05 -0.44380721E-05 -0.27684063E-05
 -0.11267404E-05  0.47314848E-06  0.20182839E-05  0.34965771E-05  0.48969044E-05
  0.62091735E-05  0.74243796E-05  0.85346503E-05  0.95332792E-05  0.10414749E-04
  0.11174743E-04  0.11810148E-04  0.12319043E-04  0.12700683E-04  0.12955469E-04
  0.13084910E-04  0.13091581E-04  0.12979064E-04  0.12751890E-04  0.12415474E-04
  0.11976038E-04  0.11440536E-04  0.10816572E-04  0.10112315E-04  0.93364084E-05
  0.84978868E-05  0.76060808E-05  0.66705291E-05  0.57008887E-05  0.47068470E-05
  0.36980360E-05  0.26839493E-05  0.16738627E-05  0.67675845E-06 -0.29874504E-06
 -0.12444595E-05 -0.21526867E-05 -0.30162733E-05 -0.38286585E-05 -0.45839162E-05
 -0.52767900E-05 -0.59027216E-05 -0.64578724E-05 -0.69391382E-05 -0.73441571E-05
 -0.76713107E-05 -0.79197189E-05 -0.80892286E-05 -0.81803953E-05 -0.81944606E-05
 -0.81333228E-05 -0.79995036E-05 -0.77961093E-05 -0.75267886E-05 -0.71956861E-05
 -0.68073933E-05 -0.63668963E-05 -0.58795215E-05 -0.53508801E-05 -0.47868109E-05
 -0.41933227E-05 -0.35765369E-05 -0.29426301E-05 -0.22977781E-05 -0.16481007E-05
 -0.99960906E-06 -0.35815451E-06  0.27061936E-06  0.88132194E-06  0.14688574E-05
  0.20284631E-05  0.25557436E-05  0.30467012E-05  0.34977621E-05  0.39057981E-05
  0.42681435E-05  0.45826083E-05  0.48474864E-05  0.50615588E-05  0.52240940E-05
  0.53348421E-05  0.53940263E-05  0.54023296E-05  0.53608779E-05  0.52712199E-05
  0.51353032E-05  0.49554478E-05  0.47343163E-05  0.44748829E-05  0.41803990E-05
  0.38543579E-05  0.35004581E-05  0.31225653E-05  0.27246740E-05  0.23108687E-05
  0.18852853E-05  0.14520727E-05  0.10153552E-05  0.57919619E-06  0.14756291E-06
 -0.27570718E-06 -0.68693793E-06 -0.10826440E-05 -0.14595582E-05 -0.18146557E-05
 -0.21451763E-05 -0.24486434E-05 -0.27228802E-05 -0.29660225E-05 -0.31765292E-05
 -0.33531888E-05 -0.34951233E-05 -0.36017893E-05 -0.36729753E-05 -0.37087965E-05
 -0.37096873E-05 -0.36763900E-05 -0.36099420E-05 -0.35116600E-05 -0.33831222E-05
 -0.32261487E-05 -0.30427796E-05 -0.28352524E-05 -0.26059777E-05 -0.23575131E-05
 -0.20925378E-05 -0.18138254E-05 -0.15242171E-05 -0.12265943E-05 -0.92385187E-06
 -0.61887178E-06 -0.31449700E-06 -0.13506672E-07  0.28140778E-06  0.56766528E-06
  0.84281625E-06  0.11045622E-05  0.13507735E-05  0.15795052E-05  0.17890114E-05
  0.19777564E-05  0.21444252E-05  0.22879305E-05  0.24074183E-05  0.25022710E-05
  0.25721084E-05  0.26167864E-05  0.26363935E-05  0.26312458E-05  0.26018795E-05
  0.25490417E-05  0.24736794E-05  0.23769274E-05  0.22600936E-05  0.21246448E-05
  0.19721892E-05  0.18044599E-05  0.16232961E-05  0.14306247E-05  0.12284410E-05
  0.10187892E-05  0.80374261E-06  0.58538464E-06  0.36578930E-06  0.14700260E-06
 -0.68975656E-07 -0.28020916E-06 -0.48484161E-06 -0.68111216E-06 -0.86736967E-06
 -0.10420857E-05 -0.12038664E-05 -0.13514624E-05 -0.14837777E-05 -0.15998769E-05
 -0.16989908E-05 -0.17805202E-05 -0.18440385E-05 -0.18892921E-05 -0.19162001E-05
 -0.19248512E-05 -0.19155003E-05 -0.18885632E-05 -0.18446094E-05 -0.17843547E-05
 -0.17086514E-05 -0.16184787E-05 -0.15149311E-05 -0.13992061E-05 -0.12725920E-05
 -0.11364540E-05 -0.99222040E-06 -0.84136857E-06 -0.68541048E-06 -0.52587816E-06
 -0.36430942E-06 -0.20223356E-06 -0.41157596E-07  0.11744724E-06  0.27215831E-06
  0.42161379E-06  0.56452407E-06  0.69968236E-06  0.82597429E-06  0.94238657E-06
  0.10480145E-05  0.11420684E-05  0.12238788E-05  0.12929009E-05  0.13487169E-05
  0.13910378E-05  0.14197043E-05  0.14346854E-05  0.14360770E-05  0.14240987E-05
  0.13990894E-05  0.13615028E-05  0.13119007E-05  0.12509463E-05  0.11793963E-05
  0.10980925E-05  0.10079526E-05  0.90996024E-06  0.80515535E-06  0.69462316E-06
  0.57948374E-06  0.46088106E-06  0.33997203E-06  0.21791570E-06  0.95862513E-07
 -0.25056126E-07 -0.14373794E-06 -0.25911947E-06 -0.37018521E-06 -0.47597620E-06
 -0.57559789E-06 -0.66822740E-06 -0.75311986E-06 -0.82961407E-06 -0.89713719E-06
 -0.95520863E-06 -0.10034429E-05 -0.10415519E-05 -0.10693456E-05 -0.10867324E-05
 -0.10937188E-05 -0.10904070E-05 -0.10769930E-05 -0.10537631E-05 -0.10210900E-05
 -0.97942773E-06 -0.92930629E-06 -0.87132562E-06 -0.80614889E-06 -0.73449542E-06
 -0.65713314E-06 -0.57487073E-06 -0.48854957E-06 -0.39903539E-06 -0.30720997E-06
 -0.21396268E-06 -0.12018220E-06 -0.26748302E-07  0.65476124E-07  0.15565279E-06
  0.24297538E-06  0.32667647E-06  0.40603408E-06  0.48037757E-06  0.54909314E-06
  0.61162853E-06  0.66749729E-06  0.71628217E-06  0.75763802E-06  0.79129380E-06
  0.81705402E-06  0.83479937E-06  0.84448670E-06  0.84614823E-06  0.83989015E-06
  0.82589052E-06  0.80439653E-06  0.77572117E-06  0.74023939E-06  0.69838365E-06
  0.65063910E-06  0.59753829E-06  0.53965553E-06  0.47760099E-06  0.41201447E-06
  0.34355906E-06  0.27291468E-06  0.20077148E-06  0.12782337E-06  0.54761493E-07
 -0.17732142E-07 -0.88990810E-07 -0.15836904E-06 -0.22524830E-06 -0.28904229E-06
 -0.34920194E-06 -0.40521998E-06 -0.45663495E-06 -0.50303491E-06 -0.54406047E-06
 -0.57940740E-06 -0.60882866E-06 -0.63213581E-06 -0.64920000E-06 -0.65995223E-06
 -0.66438320E-06 -0.66254248E-06 -0.65453726E-06 -0.64053049E-06 -0.62073863E-06
 -0.59542883E-06 -0.56491574E-06 -0.52955795E-06 -0.48975402E-06 -0.44593820E-06
 -0.39857593E-06 -0.34815906E-06 -0.29520092E-06 -0.24023125E-06 -0.18379107E-06
 -0.12642746E-06 -0.68688463E-07 -0.11117910E-07  0.45749520E-07  0.10139316E-06
  0.15531098E-06  0.20702400E-06  0.25608043E-06  0.30205945E-06  0.34457475E-06
  0.38327759E-06  0.41785954E-06  0.44805479E-06  0.47364205E-06  0.49444597E-06
  0.51033816E-06  0.52123772E-06  0.52711137E-06  0.52797307E-06  0.52388331E-06
  0.51494784E-06  0.50131614E-06  0.48317938E-06  0.46076813E-06  0.43434965E-06
  0.40422491E-06  0.37072538E-06  0.33420946E-06  0.29505886E-06  0.25367470E-06
  0.21047354E-06  0.16588327E-06  0.12033901E-06  0.74278928E-07  0.28140182E-07
 -0.17645186E-07 -0.62654178E-07 -0.10647666E-06 -0.14871899E-06 -0.18900751E-06
 -0.22699169E-06 -0.26234715E-06 -0.29477829E-06 -0.32402068E-06 -0.34984311E-06
 -0.37204929E-06 -0.39047926E-06 -0.40501035E-06 -0.41555788E-06 -0.42207543E-06
 -0.42455476E-06 -0.42302545E-06 -0.41755404E-06 -0.40824301E-06 -0.39522933E-06
 -0.37868274E-06 -0.35880374E-06 -0.33582133E-06 -0.30999052E-06 -0.28158961E-06
 -0.25091729E-06 -0.21828961E-06 -0.18403683E-06 -0.14850012E-06 -0.11202827E-06
 -0.74974337E-07 -0.37692301E-07 -0.53375697E-09  0.36155333E-07  0.72037790E-07
  0.10678825E-06  0.14009605E-06  0.17166794E-06  0.20123056E-06  0.22853281E-06
  0.25334784E-06  0.27547489E-06  0.29474083E-06  0.31100143E-06  0.32414234E-06
  0.33407979E-06  0.34076096E-06  0.34416412E-06  0.34429843E-06  0.34120347E-06
  0.33494849E-06  0.32563142E-06  0.31337754E-06  0.29833805E-06  0.28068829E-06
  0.26062581E-06  0.23836827E-06  0.21415114E-06  0.18822532E-06  0.16085457E-06
  0.13231290E-06  0.10288190E-06  0.72848039E-07  0.42499872E-07  0.12125379E-07
 -0.17990740E-07 -0.47569679E-07 -0.76341054E-07 -0.10404533E-06 -0.13043609E-06
 -0.15528221E-06 -0.17836980E-06 -0.19950401E-06 -0.21851062E-06 -0.23523739E-06
 -0.24955525E-06 -0.26135921E-06 -0.27056905E-06 -0.27712977E-06 -0.28101180E-06
 -0.28221098E-06 -0.28074829E-06 -0.27666935E-06 -0.27004369E-06 -0.26096385E-06
 -0.24954419E-06 -0.23591962E-06 -0.22024403E-06 -0.20268870E-06 -0.18344044E-06
 -0.16269967E-06 -0.14067841E-06 -0.11759814E-06 -0.93687620E-07 -0.69180696E-07
 -0.44314019E-07 -0.19324819E-07  0.55513190E-08  0.30082636E-07  0.54043321E-07
  0.77215552E-07  0.99391435E-07  0.12037483E-06  0.13998304E-06  0.15804840E-06
  0.17441958E-06  0.18896293E-06  0.20156341E-06  0.21212553E-06  0.22057396E-06
  0.22685404E-06  0.23093203E-06  0.23279519E-06  0.23245167E-06  0.22993015E-06
  0.22527939E-06  0.21856751E-06  0.20988115E-06  0.19932442E-06  0.18701774E-06
  0.17309656E-06  0.15770987E-06  0.14101868E-06  0.12319437E-06  0.10441699E-06
  0.84873451E-07  0.64755700E-07  0.44258891E-07  0.23579509E-07  0.29135155E-08
 -0.17545470E-07 -0.37607958E-07 -0.57090316E-07 -0.75816415E-07 -0.93619197E-07
 -0.11034213E-06 -0.12584056E-06 -0.13998293E-06 -0.15265184E-06 -0.16374504E-06
 -0.17317615E-06 -0.18087535E-06 -0.18678981E-06 -0.19088401E-06 -0.19313987E-06
 -0.19355673E-06 -0.19215119E-06 -0.18895669E-06 -0.18402310E-06 -0.17741600E-06
 -0.16921594E-06 -0.15951747E-06 -0.14842818E-06 -0.13606745E-06 -0.12256528E-06
 -0.10806094E-06 -0.92701530E-07 -0.76640554E-07 -0.60036403E-07 -0.43050813E-07
 -0.25847322E-07 -0.85897160E-08  0.85595063E-08  0.25440639E-07  0.41898235E-07
  0.57782512E-07  0.72950696E-07  0.87268277E-07  0.10061018E-06  0.11286184E-06
  0.12392015E-06  0.13369430E-06  0.14210651E-06  0.14909259E-06  0.15460244E-06
  0.15860031E-06  0.16106502E-06  0.16198997E-06  0.16138310E-06  0.15926659E-06
  0.15567653E-06  0.15066246E-06  0.14428671E-06  0.13662372E-06  0.12775919E-06
  0.11778917E-06  0.10681904E-06  0.94962444E-07  0.82340104E-07  0.69078642E-07
  0.55309323E-07  0.41166774E-07  0.26787691E-07  0.12309535E-07 -0.21307623E-08
 -0.16398074E-07 -0.30360327E-07 -0.43889705E-07 -0.56863799E-07 -0.69166698E-07
 -0.80690008E-07 -0.91333784E-07 -0.10100738E-06 -0.10963019E-06 -0.11713233E-06
 -0.12345512E-06 -0.12855159E-06 -0.13238674E-06 -0.13493776E-06 -0.13619412E-06
 -0.13615756E-06 -0.13484188E-06 -0.13227278E-06 -0.12848741E-06 -0.12353396E-06
 -0.11747106E-06 -0.11036713E-06 -0.10229965E-06 -0.93354349E-07 -0.83624270E-07
 -0.73208872E-07 -0.62213008E-07 -0.50745895E-07 -0.38920043E-07 -0.26850164E-07
 -0.14652085E-07 -0.24416384E-08  0.96664127E-08  0.21559444E-07  0.33128003E-07
  0.44266799E-07  0.54875651E-07  0.64860370E-07  0.74133584E-07  0.82615486E-07
  0.90234504E-07  0.96927886E-07  0.10264220E-06  0.10733375E-06  0.11096887E-06
  0.11352413E-06  0.11498650E-06  0.11535330E-06  0.11463218E-06  0.11284090E-06
  0.11000708E-06  0.10616787E-06  0.10136944E-06  0.95666501E-07  0.89121718E-07
  0.81805008E-07  0.73792831E-07  0.65167403E-07  0.56015870E-07  0.46429441E-07
  0.36502490E-07  0.26331646E-07  0.16014855E-07  0.56504587E-08 -0.46637376E-08
 -0.14831374E-07 -0.24758426E-07 -0.34354062E-07 -0.43531461E-07 -0.52208592E-07
 -0.60308928E-07 -0.67762118E-07 -0.74504575E-07 -0.80480013E-07 -0.85639900E-07
 -0.89943834E-07 -0.93359845E-07 -0.95864608E-07 -0.97443581E-07 -0.98091049E-07
 -0.97810095E-07 -0.96612484E-07 -0.94518464E-07 -0.91556497E-07 -0.87762910E-07
 -0.83181477E-07 -0.77862934E-07 -0.71864438E-07 -0.65248969E-07 -0.58084679E-07
 -0.50444203E-07 -0.42403939E-07 -0.34043290E-07 -0.25443892E-07 -0.16688827E-07
 -0.78618317E-08  0.95349791E-09  0.96744849E-08  0.18220139E-07  0.26511902E-07
  0.34474354E-07  0.42035898E-07  0.49129389E-07  0.55692724E-07  0.61669369E-07
  0.67008846E-07  0.71667135E-07  0.75607037E-07  0.78798449E-07  0.81218578E-07
  0.82852091E-07  0.83691180E-07  0.83735568E-07  0.82992435E-07  0.81476285E-07
  0.79208735E-07  0.76218247E-07  0.72539795E-07  0.68214474E-07  0.63289060E-07
  0.57815513E-07  0.51850445E-07  0.45454541E-07  0.38691952E-07  0.31629665E-07
  0.24336843E-07  0.16884157E-07  0.93431126E-08  0.17853670E-08 -0.57179411E-08
 -0.13096855E-07 -0.20283243E-07 -0.27211424E-07 -0.33818756E-07 -0.40046196E-07
 -0.45838821E-07 -0.51146304E-07 -0.55923343E-07 -0.60130036E-07 -0.63732210E-07
 -0.66701681E-07 -0.69016469E-07 -0.70660941E-07 -0.71625903E-07 -0.71908621E-07
 -0.71512791E-07 -0.70448443E-07 -0.68731786E-07 -0.66385001E-07 -0.63435977E-07
   16.2516435017787      T
 Non local Part
           0           2   1.24080360885718     
   13.9088076706990        15.1828324785864        15.1828324785864     
   16.5749971685762     
 Reciprocal Space Part
 -0.19595324E+03 -0.19435743E+03 -0.18959584E+03 -0.18174557E+03 -0.17093345E+03
 -0.15733378E+03 -0.14116497E+03 -0.12268554E+03 -0.10218933E+03 -0.80000057E+02
 -0.56465391E+02 -0.31950633E+02 -0.68321130E+01  0.18509530E+02  0.43696077E+02
  0.68358312E+02  0.92142342E+02  0.11471553E+03  0.13577194E+03  0.15503714E+03
  0.17227237E+03  0.18727793E+03  0.19989573E+03  0.21001107E+03  0.21755344E+03
  0.22249657E+03  0.22485758E+03  0.22469535E+03  0.22210809E+03  0.21723031E+03
  0.21022909E+03  0.20129993E+03  0.19066212E+03  0.17855388E+03  0.16522717E+03
  0.15094262E+03  0.13596430E+03  0.12055470E+03  0.10496996E+03  0.89455419E+02
  0.74241492E+02  0.59540127E+02  0.45541723E+02  0.32412652E+02  0.20293366E+02
  0.92971378E+01 -0.49059435E+00 -0.90122695E+01 -0.16237672E+02 -0.22162861E+02
 -0.26808605E+02 -0.30218389E+02 -0.32456049E+02 -0.33603113E+02 -0.33755915E+02
 -0.33022565E+02 -0.31519844E+02 -0.29370108E+02 -0.26698254E+02 -0.23628830E+02
 -0.20283345E+02 -0.16777812E+02 -0.13220597E+02 -0.97105736E+01 -0.63356405E+01
 -0.31715850E+01 -0.28132029E+00  0.22855198E+01  0.44926382E+01  0.63168057E+01
  0.77472924E+01  0.87850354E+01  0.94415785E+01  0.97378276E+01  0.97026646E+01
  0.93714658E+01  0.87845676E+01  0.79857253E+01  0.70206029E+01  0.59353338E+01
  0.47751837E+01  0.35833447E+01  0.23998843E+01  0.12608646E+01  0.19764605E+00
 -0.76362069E+00 -0.16023135E+01 -0.23034728E+01 -0.28577616E+01 -0.32612643E+01
 -0.35151424E+01 -0.36251681E+01 -0.36011574E+01 -0.34563263E+01 -0.32065968E+01
 -0.28698735E+01 -0.24653181E+01 -0.20126405E+01 -0.15314291E+01 -0.10405359E+01
 Real Space Part
  0.60043486E+03  0.60019362E+03  0.59946990E+03  0.59826380E+03  0.59657546E+03
  0.59440510E+03  0.59175302E+03  0.58861960E+03  0.58500533E+03  0.58091081E+03
  0.57633678E+03  0.57128416E+03  0.56575403E+03  0.55974770E+03  0.55326672E+03
  0.54631290E+03  0.53888839E+03  0.53099567E+03  0.52263761E+03  0.51381751E+03
  0.50453918E+03  0.49480692E+03  0.48462564E+03  0.47400087E+03  0.46293885E+03
  0.45144656E+03  0.43953180E+03  0.42720326E+03  0.41447056E+03  0.40134436E+03
  0.38783639E+03  0.37395954E+03  0.35972794E+03  0.34515704E+03  0.33026363E+03
  0.31506601E+03  0.29958397E+03  0.28383890E+03  0.26785389E+03  0.25165373E+03
  0.23526502E+03  0.21871621E+03  0.20203765E+03  0.18526161E+03  0.16842233E+03
  0.15155606E+03  0.13470098E+03  0.11789727E+03  0.10118705E+03  0.84614292E+02
  0.68224787E+02  0.52066014E+02  0.36187010E+02  0.20638206E+02  0.54712195E+01
 -0.92613786E+01 -0.23506347E+02 -0.37210095E+02 -0.50319046E+02 -0.62780044E+02
 -0.74540810E+02 -0.85550440E+02 -0.95759938E+02 -0.10512281E+03 -0.11359565E+03
 -0.12113882E+03 -0.12771711E+03 -0.13330039E+03 -0.13786432E+03 -0.14139105E+03
 -0.14386982E+03 -0.14529762E+03 -0.14567973E+03 -0.14503024E+03 -0.14337242E+03
 -0.14073906E+03 -0.13717263E+03 -0.13272532E+03 -0.12745896E+03 -0.12144473E+03
 -0.11476278E+03 -0.10750163E+03 -0.99757361E+02 -0.91632808E+02 -0.83236410E+02
 -0.74681108E+02 -0.66082982E+02 -0.57559939E+02 -0.49230230E+02 -0.41211021E+02
 -0.33616920E+02 -0.26558553E+02 -0.20141199E+02 -0.14463523E+02 -0.96163731E+01
 -0.56819619E+01 -0.27328103E+01 -0.82541580E+00 -0.45272292E-01  0.00000000E+00
 Reciprocal Space Part
  0.18660718E+03  0.18512770E+03  0.18071316E+03  0.17343478E+03  0.16340975E+03
  0.15079910E+03  0.13580466E+03  0.11866531E+03  0.99652566E+02  0.79065602E+02
  0.57225744E+02  0.34470645E+02  0.11148195E+02 -0.12389683E+02 -0.35793246E+02
 -0.58721002E+02 -0.80845556E+02 -0.10185908E+03 -0.12147833E+03 -0.13944913E+03
 -0.15555017E+03 -0.16959616E+03 -0.18144020E+03 -0.19097541E+03 -0.19813570E+03
 -0.20289583E+03 -0.20527059E+03 -0.20531334E+03 -0.20311379E+03 -0.19879516E+03
 -0.19251083E+03 -0.18444041E+03 -0.17478559E+03 -0.16376557E+03 -0.15161233E+03
 -0.13856593E+03 -0.12486969E+03 -0.11076560E+03 -0.96489876E+02 -0.82268824E+02
 -0.68315120E+02 -0.54824472E+02 -0.41972796E+02 -0.29913918E+02 -0.18777824E+02
 -0.86694861E+01  0.33174316E+00  0.81721850E+01  0.14823351E+02  0.20280963E+02
  0.24563524E+02  0.27710482E+02  0.29780064E+02  0.30846828E+02  0.30999008E+02
  0.30335730E+02  0.28964153E+02  0.26996616E+02  0.24547851E+02  0.21732316E+02
  0.18661714E+02  0.15442736E+02  0.12175071E+02  0.89497092E+01  0.58475662E+01
  0.29384393E+01  0.28029803E+00 -0.20810928E+01 -0.41122299E+01 -0.57916279E+01
 -0.71093005E+01 -0.80659969E+01 -0.86722299E+01 -0.89471324E+01 -0.89171849E+01
 -0.86148526E+01 -0.80771758E+01 -0.73443520E+01 -0.64583468E+01 -0.54615695E+01
 -0.43956425E+01 -0.33002913E+01 -0.22123761E+01 -0.11650811E+01 -0.18727215E+00
  0.69697185E+00  0.14686534E+01  0.21139814E+01  0.26243350E+01  0.29960802E+01
  0.32302540E+01  0.33321364E+01  0.33107294E+01  0.31781658E+01  0.29490707E+01
  0.26398970E+01  0.22682576E+01  0.18522737E+01  0.14099583E+01  0.95865070E+00
 Real Space Part
 -0.54738786E+03 -0.54716717E+03 -0.54650509E+03 -0.54540171E+03 -0.54385716E+03
 -0.54187165E+03 -0.53944542E+03 -0.53657884E+03 -0.53327233E+03 -0.52952644E+03
 -0.52534185E+03 -0.52071938E+03 -0.51566002E+03 -0.51016494E+03 -0.50423556E+03
 -0.49787354E+03 -0.49108081E+03 -0.48385964E+03 -0.47621266E+03 -0.46814287E+03
 -0.45965373E+03 -0.45074920E+03 -0.44143375E+03 -0.43171243E+03 -0.42159096E+03
 -0.41107571E+03 -0.40017383E+03 -0.38889326E+03 -0.37724283E+03 -0.36523228E+03
 -0.35287236E+03 -0.34017489E+03 -0.32715281E+03 -0.31382026E+03 -0.30019267E+03
 -0.28628678E+03 -0.27212075E+03 -0.25771420E+03 -0.24308827E+03 -0.22826572E+03
 -0.21327095E+03 -0.19813003E+03 -0.18287081E+03 -0.16752289E+03 -0.15211768E+03
 -0.13668841E+03 -0.12127014E+03 -0.10589971E+03 -0.90615761E+02 -0.75458633E+02
 -0.60470332E+02 -0.45694416E+02 -0.31175867E+02 -0.16960950E+02 -0.30970139E+01
  0.10367719E+02  0.23384414E+02  0.35903918E+02  0.47877093E+02  0.59255194E+02
  0.69990283E+02  0.80035687E+02  0.89346494E+02  0.97880083E+02  0.10559669E+03
  0.11246001E+03  0.11843779E+03  0.12350248E+03  0.12763181E+03  0.13080951E+03
  0.13302580E+03  0.13427803E+03  0.13457117E+03  0.13391827E+03  0.13234082E+03
  0.12986904E+03  0.12654205E+03  0.12240789E+03  0.11752346E+03  0.11195422E+03
  0.10577387E+03  0.99063799E+02  0.91912325E+02  0.84413959E+02  0.76668348E+02
  0.68779263E+02  0.60853348E+02  0.52998909E+02  0.45324558E+02  0.37937895E+02
  0.30944160E+02  0.24444921E+02  0.18536824E+02  0.13310427E+02  0.88490996E+01
  0.52282671E+01  0.25144456E+01  0.75941794E+00  0.41646290E-01  0.00000000E+00
 Non local Part
           1           2   1.24080360885718     
   4.88372397502017        6.96365605283036        6.96365605283036     
   9.93508266952608     
 Reciprocal Space Part
  0.00000000E+00  0.67470641E+01  0.13316955E+02  0.19536242E+02  0.25238891E+02
  0.30269766E+02  0.34487886E+02  0.37769370E+02  0.40010018E+02  0.41127454E+02
  0.41062805E+02  0.39781861E+02  0.37275715E+02  0.33560860E+02  0.28678737E+02
  0.22694772E+02  0.15696900E+02  0.77936343E+01 -0.88829018E+00 -0.10206628E+02
 -0.20006636E+02 -0.30124317E+02 -0.40389818E+02 -0.50630908E+02 -0.60676463E+02
 -0.70359873E+02 -0.79522308E+02 -0.88015768E+02 -0.95705858E+02 -0.10247423E+03
 -0.10822063E+03 -0.11286459E+03 -0.11634655E+03 -0.11862867E+03 -0.11969507E+03
 -0.11955166E+03 -0.11822545E+03 -0.11576356E+03 -0.11223172E+03 -0.10771249E+03
 -0.10230316E+03 -0.96113388E+02 -0.89262725E+02 -0.81877903E+02 -0.74090147E+02
 -0.66032447E+02 -0.57836898E+02 -0.49632153E+02 -0.41541043E+02 -0.33678410E+02
 -0.26149195E+02 -0.19046818E+02 -0.12451860E+02 -0.64310857E+01 -0.10368009E+01
  0.36934545E+01  0.77368757E+01  0.11085048E+02  0.13743307E+02  0.15729829E+02
  0.17074486E+02  0.17817510E+02  0.18007991E+02  0.17702265E+02  0.16962231E+02
  0.15853638E+02  0.14444380E+02  0.12802858E+02  0.10996409E+02  0.90898780E+01
  0.71443229E+01  0.52158987E+01  0.33549286E+01  0.16051758E+01  0.33226456E-02
 -0.14213436E+01 -0.26470414E+01 -0.36594127E+01 -0.44512614E+01 -0.50221307E+01
 -0.53777391E+01 -0.55293003E+01 -0.54927504E+01 -0.52879099E+01 -0.49376059E+01
 -0.44667803E+01 -0.39016095E+01 -0.32686579E+01 -0.25940853E+01 -0.19029269E+01
 -0.12184610E+01 -0.56167400E+00  0.49166991E-01  0.59883057E+00  0.10753252E+01
  0.14699930E+01  0.17774979E+01  0.19957169E+01  0.21255431E+01  0.21706134E+01
 Real Space Part
  0.00000000E+00 -0.13227699E+02 -0.26421929E+02 -0.39549280E+02 -0.52576463E+02
 -0.65470373E+02 -0.78198145E+02 -0.90727217E+02 -0.10302540E+03 -0.11506091E+03
 -0.12680248E+03 -0.13821938E+03 -0.14928149E+03 -0.15995939E+03 -0.17022439E+03
 -0.18004860E+03 -0.18940504E+03 -0.19826764E+03 -0.20661137E+03 -0.21441227E+03
 -0.22164754E+03 -0.22829560E+03 -0.23433619E+03 -0.23975042E+03 -0.24452084E+03
 -0.24863154E+03 -0.25206822E+03 -0.25481828E+03 -0.25687089E+03 -0.25821707E+03
 -0.25884979E+03 -0.25876404E+03 -0.25795692E+03 -0.25642775E+03 -0.25417811E+03
 -0.25121197E+03 -0.24753577E+03 -0.24315845E+03 -0.23809163E+03 -0.23234958E+03
 -0.22594940E+03 -0.21891099E+03 -0.21125719E+03 -0.20301382E+03 -0.19420968E+03
 -0.18487663E+03 -0.17504963E+03 -0.16476666E+03 -0.15406882E+03 -0.14300021E+03
 -0.13160792E+03 -0.11994192E+03 -0.10805498E+03 -0.96002494E+02 -0.83842333E+02
 -0.71634597E+02 -0.59441375E+02 -0.47326433E+02 -0.35354861E+02 -0.23592682E+02
 -0.12106393E+02 -0.96246805E+00  0.97731924E+01  0.20035863E+02  0.29762639E+02
  0.38893120E+02  0.47370139E+02  0.55140505E+02  0.62155776E+02  0.68373033E+02
  0.73755647E+02  0.78274028E+02  0.81906334E+02  0.84639119E+02  0.86467912E+02
  0.87397722E+02  0.87443387E+02  0.86629831E+02  0.84992191E+02  0.82575724E+02
  0.79435618E+02  0.75636600E+02  0.71252335E+02  0.66364745E+02  0.61063035E+02
  0.55442711E+02  0.49604319E+02  0.43652206E+02  0.37693083E+02  0.31834607E+02
  0.26183892E+02  0.20846039E+02  0.15922700E+02  0.11510703E+02  0.77007530E+01
  0.45763653E+01  0.22127540E+01  0.67300569E+00  0.27259340E-01  0.00000000E+00
 Reciprocal Space Part
  0.00000000E+00 -0.43316328E+01 -0.85437385E+01 -0.12519338E+02 -0.16146494E+02
 -0.19320687E+02 -0.21947042E+02 -0.23942325E+02 -0.25236703E+02 -0.25775196E+02
 -0.25518817E+02 -0.24445356E+02 -0.22549807E+02 -0.19844425E+02 -0.16358409E+02
 -0.12137236E+02 -0.72416409E+01 -0.17462919E+01  0.42618264E+01  0.10685273E+02
  0.17418213E+02  0.24348640E+02  0.31360696E+02  0.38337055E+02  0.45161296E+02
  0.51720235E+02  0.57906148E+02  0.63618849E+02  0.68767579E+02  0.73272661E+02
  0.77066902E+02  0.80096697E+02  0.82322839E+02  0.83721006E+02  0.84281931E+02
  0.84011255E+02  0.82929066E+02  0.81069163E+02  0.78478040E+02  0.75213642E+02
  0.71343911E+02  0.66945174E+02  0.62100393E+02  0.56897342E+02  0.51426737E+02
  0.45780365E+02  0.40049259E+02  0.34321952E+02  0.28682847E+02  0.23210734E+02
  0.17977490E+02  0.13046967E+02  0.84741055E+01  0.43042723E+01  0.57282836E+00
 -0.26950652E+01 -0.54844154E+01 -0.77901465E+01 -0.96166477E+01 -0.10977136E+02
 -0.11892860E+02 -0.12392167E+02 -0.12509465E+02 -0.12284105E+02 -0.11759216E+02
 -0.10980523E+02 -0.99951730E+01 -0.88505980E+01 -0.75934430E+01 -0.62685757E+01
 -0.49182011E+01 -0.35810948E+01 -0.22919667E+01 -0.10809646E+01  0.26680405E-01
  0.10108645E+01  0.18566821E+01  0.25543640E+01  0.30990913E+01  0.34906991E+01
  0.37332831E+01  0.38347261E+01  0.38061620E+01  0.36613941E+01  0.34162873E+01
  0.30881516E+01  0.26951329E+01  0.22556288E+01  0.17877412E+01  0.13087803E+01
  0.83482862E+00  0.38037327E+00 -0.41987793E-01 -0.42176247E+00 -0.75070367E+00
 -0.10228721E+01 -0.12346267E+01 -0.13845469E+01 -0.14732959E+01 -0.15034306E+01
 Real Space Part
  0.00000000E+00  0.93057597E+01  0.18588107E+02  0.27823673E+02  0.36989171E+02
  0.46061443E+02  0.55017500E+02  0.63834564E+02  0.72490113E+02  0.80961921E+02
  0.89228107E+02  0.97267172E+02  0.10505805E+03  0.11258015E+03  0.11981339E+03
  0.12673827E+03  0.13333589E+03  0.13958802E+03  0.14547713E+03  0.15098644E+03
  0.15610001E+03  0.16080270E+03  0.16508033E+03  0.16891966E+03  0.17230846E+03
  0.17523557E+03  0.17769095E+03  0.17966575E+03  0.18115236E+03  0.18214444E+03
  0.18263704E+03  0.18262658E+03  0.18211099E+03  0.18108972E+03  0.17956381E+03
  0.17753595E+03  0.17501055E+03  0.17199381E+03  0.16849372E+03  0.16452018E+03
  0.16008503E+03  0.15520208E+03  0.14988717E+03  0.14415823E+03  0.13803526E+03
  0.13154041E+03  0.12469796E+03  0.11753433E+03  0.11007808E+03  0.10235991E+03
  0.94412554E+02  0.86270798E+02  0.77971362E+02  0.69552810E+02  0.61055426E+02
  0.52521068E+02  0.43992980E+02  0.35515585E+02  0.27134245E+02  0.18894977E+02
  0.10844147E+02  0.30281179E+01 -0.45071296E+01 -0.11716416E+02 -0.18555810E+02
 -0.24983105E+02 -0.30958325E+02 -0.36444242E+02 -0.41406910E+02 -0.45816207E+02
 -0.49646371E+02 -0.52876515E+02 -0.55491126E+02 -0.57480517E+02 -0.58841229E+02
 -0.59576387E+02 -0.59695943E+02 -0.59216858E+02 -0.58163193E+02 -0.56566051E+02
 -0.54463442E+02 -0.51900022E+02 -0.48926671E+02 -0.45600031E+02 -0.41981824E+02
 -0.38138182E+02 -0.34138761E+02 -0.30055898E+02 -0.25963599E+02 -0.21936565E+02
 -0.18049156E+02 -0.14374366E+02 -0.10982833E+02 -0.79418748E+01 -0.53145894E+01
 -0.31591129E+01 -0.15278432E+01 -0.46479475E+00 -0.18813291E-01  0.00000000E+00
 Non local Part
           2           1   1.24080360885718     
   14.0781321971840     
 Reciprocal Space Part
  0.00000000E+00  0.24001314E-01  0.95581607E-01  0.21347801E+00  0.37561253E+00
  0.57913161E+00  0.82046039E+00  0.10953705E+01  0.13990598E+01  0.17262432E+01
  0.20712508E+01  0.24281344E+01  0.27907766E+01  0.31530030E+01  0.35086947E+01
  0.38518971E+01  0.41769254E+01  0.44784633E+01  0.47516528E+01  0.49921741E+01
  0.51963142E+01  0.53610226E+01  0.54839531E+01  0.55634916E+01  0.55987692E+01
  0.55896612E+01  0.55367715E+01  0.54414036E+01  0.53055188E+01  0.51316835E+01
  0.49230055E+01  0.46830623E+01  0.44158223E+01  0.41255612E+01  0.38167744E+01
  0.34940889E+01  0.31621753E+01  0.28256617E+01  0.24890525E+01  0.21566513E+01
  0.18324924E+01  0.15202789E+01  0.12233305E+01  0.94454101E+00  0.68634612E+00
  0.45070175E+00  0.23907288E+00  0.52432750E-01 -0.10872798E+00 -0.24438281E+00
 -0.35494258E+00 -0.44122104E+00 -0.50439412E+00 -0.54595400E+00 -0.56765915E+00
 -0.57148181E+00 -0.55955404E+00 -0.53411366E+00 -0.49745135E+00 -0.45185991E+00
 -0.39958674E+00 -0.34279043E+00 -0.28350229E+00 -0.22359316E+00 -0.16474628E+00
 -0.10843616E+00 -0.55913805E-01 -0.81980797E-02  0.33926879E-01  0.69908580E-01
  0.99417855E-01  0.12233586E+00  0.13873701E+00  0.14886859E+00  0.15312772E+00
  0.15203646E+00  0.14621580E+00  0.13635936E+00  0.12320730E+00  0.10752131E+00
  0.90061127E-01  0.71563074E-01  0.52721138E-01  0.34170792E-01  0.16475851E-01
  0.11846862E-03 -0.14507683E-01 -0.27101118E-01 -0.37453248E-01 -0.45446319E-01
 -0.51048850E-01 -0.54308884E-01 -0.55345433E-01 -0.54338490E-01 -0.51518021E-01
 -0.47152340E-01 -0.41536255E-01 -0.34979369E-01 -0.27794864E-01 -0.20289084E-01
 Real Space Part
  0.00000000E+00  0.31999297E-02  0.12795210E-01  0.28772305E-01  0.51108607E-01
  0.79772382E-01  0.11472268E+00  0.15590920E+00  0.20327221E+00  0.25674232E+00
  0.31624033E+00  0.38167703E+00  0.45295295E+00  0.52995812E+00  0.61257181E+00
  0.70066222E+00  0.79408620E+00  0.89268888E+00  0.99630339E+00  0.11047505E+01
  0.12178381E+01  0.13353611E+01  0.14571010E+01  0.15828253E+01  0.17122871E+01
  0.18452252E+01  0.19813632E+01  0.21204093E+01  0.22620562E+01  0.24059804E+01
  0.25518423E+01  0.26992855E+01  0.28479369E+01  0.29974067E+01  0.31472878E+01
  0.32971563E+01  0.34465710E+01  0.35950742E+01  0.37421913E+01  0.38874319E+01
  0.40302895E+01  0.41702428E+01  0.43067563E+01  0.44392814E+01  0.45672576E+01
  0.46901140E+01  0.48072708E+01  0.49181418E+01  0.50221361E+01  0.51186613E+01
  0.52071258E+01  0.52869426E+01  0.53575326E+01  0.54183289E+01  0.54687810E+01
  0.55083596E+01  0.55365619E+01  0.55529171E+01  0.55569922E+01  0.55483983E+01
  0.55267970E+01  0.54919071E+01  0.54435116E+01  0.53814643E+01  0.53056968E+01
  0.52162252E+01  0.51131561E+01  0.49966932E+01  0.48671420E+01  0.47249146E+01
  0.45705331E+01  0.44046323E+01  0.42279607E+01  0.40413801E+01  0.38458636E+01
  0.36424923E+01  0.34324495E+01  0.32170133E+01  0.29975478E+01  0.27754913E+01
  0.25523442E+01  0.23296543E+01  0.21090008E+01  0.18919781E+01  0.16801770E+01
  0.14751677E+01  0.12784804E+01  0.10915879E+01  0.91588791E+00  0.75268653E+00
  0.60318341E+00  0.46845837E+00  0.34945951E+00  0.24699459E+00  0.16172302E+00
  0.94154106E-01  0.44642520E-01  0.13308835E-01  0.66086983E-03  0.00000000E+00
 PAW radial sets
         363   1.18970919762334     
(5E20.12)                                
 augmentation charges (non sperical)
 -0.423729469246E+00 -0.460470248013E+00 -0.190179679832E+00 -0.276423992760E+00 -0.779667855447E-01
 -0.460470248013E+00 -0.500414205845E+00 -0.206972853445E+00 -0.300806278204E+00 -0.847828589728E-01
 -0.190179679832E+00 -0.206972853445E+00 -0.880092362743E-01 -0.127710669747E+00 -0.225134153779E-01
 -0.276423992760E+00 -0.300806278204E+00 -0.127710669747E+00 -0.185346466136E+00 -0.339167487341E-01
 -0.779667855447E-01 -0.847828589728E-01 -0.225134153779E-01 -0.339167487341E-01  0.833718723899E-01
 uccopancies in atom
  0.200000000340E+01  0.000000000000E+00  0.000000000000E+00  0.000000000000E+00  0.000000000000E+00
  0.000000000000E+00  0.000000000000E+00  0.000000000000E+00  0.000000000000E+00  0.000000000000E+00
  0.000000000000E+00  0.000000000000E+00  0.133333333663E+01  0.000000000000E+00  0.000000000000E+00
  0.000000000000E+00  0.000000000000E+00  0.000000000000E+00  0.000000000000E+00  0.000000000000E+00
  0.000000000000E+00  0.000000000000E+00  0.000000000000E+00  0.000000000000E+00  0.000000000000E+00
 grid
  0.585112745769E-04  0.604139152584E-04  0.623784250683E-04  0.644068158364E-04  0.665011648120E-04
  0.686636167916E-04  0.708963863149E-04  0.732017599330E-04  0.755820985500E-04  0.780398398405E-04
  0.805775007466E-04  0.831976800546E-04  0.859030610571E-04  0.886964143008E-04  0.915806004233E-04
  0.945585730835E-04  0.976333819853E-04  0.100808176002E-03  0.104086206400E-03  0.107470830169E-03
  0.110965513459E-03  0.114573835131E-03  0.118299490423E-03  0.122146294731E-03  0.126118187518E-03
  0.130219236349E-03  0.134453641058E-03  0.138825738044E-03  0.143340004718E-03  0.148001064082E-03
  0.152813689468E-03  0.157782809426E-03  0.162913512769E-03  0.168211053784E-03  0.173680857618E-03
  0.179328525827E-03  0.185159842117E-03  0.191180778265E-03  0.197397500237E-03  0.203816374498E-03
  0.210443974537E-03  0.217287087596E-03  0.224352721619E-03  0.231648112435E-03  0.239180731160E-03
  0.246958291854E-03  0.254988759419E-03  0.263280357757E-03  0.271841578187E-03  0.280681188148E-03
  0.289808240172E-03  0.299232081159E-03  0.308962361946E-03  0.319009047190E-03  0.329382425574E-03
  0.340093120345E-03  0.351152100190E-03  0.362570690471E-03  0.374360584822E-03  0.386533857125E-03
  0.399102973874E-03  0.412080806945E-03  0.425480646771E-03  0.439316215959E-03  0.453601683342E-03
  0.468351678487E-03  0.483581306677E-03  0.499306164382E-03  0.515542355231E-03  0.532306506502E-03
  0.549615786152E-03  0.567487920394E-03  0.585941211856E-03  0.604994558321E-03  0.624667472080E-03
  0.644980099918E-03  0.665953243738E-03  0.687608381875E-03  0.709967691080E-03  0.733054069241E-03
  0.756891158827E-03  0.781503371099E-03  0.806915911115E-03  0.833154803535E-03  0.860246919279E-03
  0.888220003041E-03  0.917102701702E-03  0.946924593670E-03  0.977716219168E-03  0.100950911151E-02
  0.104233582940E-02  0.107622999026E-02  0.111122630468E-02  0.114736061194E-02  0.118466991672E-02
  0.122319242703E-02  0.126296759326E-02  0.130403614868E-02  0.134644015106E-02  0.139022302581E-02
  0.143542961043E-02  0.148210620040E-02  0.153030059664E-02  0.158006215441E-02  0.163144183389E-02
  0.168449225238E-02  0.173926773814E-02  0.179582438604E-02  0.185422011504E-02  0.191451472747E-02
  0.197676997027E-02  0.204104959827E-02  0.210741943941E-02  0.217594746221E-02  0.224670384536E-02
  0.231976104957E-02  0.239519389180E-02  0.247307962188E-02  0.255349800161E-02  0.263653138642E-02
  0.272226480977E-02  0.281078607016E-02  0.290218582111E-02  0.299655766394E-02  0.309399824368E-02
  0.319460734798E-02  0.329848800937E-02  0.340574661071E-02  0.351649299419E-02  0.363084057379E-02
  0.374890645141E-02  0.387081153683E-02  0.399668067151E-02  0.412664275645E-02  0.426083088418E-02
  0.439938247506E-02  0.454243941803E-02  0.469014821590E-02  0.484266013540E-02  0.500013136204E-02
  0.516272316013E-02  0.533060203788E-02  0.550393991793E-02  0.568291431341E-02  0.586770850974E-02
  0.605851175233E-02  0.625551944038E-02  0.645893332697E-02  0.666896172570E-02  0.688581972399E-02
  0.710972940340E-02  0.734092006699E-02  0.757962847421E-02  0.782609908333E-02  0.808058430179E-02
  0.834334474470E-02  0.861464950169E-02  0.889477641257E-02  0.918401235175E-02  0.948265352212E-02
  0.979100575833E-02  0.101093848400E-01  0.104381168152E-01  0.107775383341E-01  0.111279969941E-01
  0.114898516953E-01  0.118634730088E-01  0.122492435553E-01  0.126475583976E-01  0.130588254449E-01
  0.134834658706E-01  0.139219145436E-01  0.143746204736E-01  0.148420472711E-01  0.153246736220E-01
  0.158229937778E-01  0.163375180619E-01  0.168687733921E-01  0.174173038204E-01  0.179836710898E-01
  0.185684552098E-01  0.191722550506E-01  0.197956889560E-01  0.204393953766E-01  0.211040335242E-01
  0.217902840463E-01  0.224988497233E-01  0.232304561886E-01  0.239858526709E-01  0.247658127624E-01
  0.255711352103E-01  0.264026447352E-01  0.272611928754E-01  0.281476588594E-01  0.290629505056E-01
  0.300080051529E-01  0.309837906196E-01  0.319913061955E-01  0.330315836644E-01  0.341056883615E-01
  0.352147202637E-01  0.363598151167E-01  0.375421455976E-01  0.387629225163E-01  0.400233960548E-01
  0.413248570484E-01  0.426686383067E-01  0.440561159792E-01  0.454887109643E-01  0.469678903644E-01
  0.484951689885E-01  0.500721109033E-01  0.517003310353E-01  0.533814968240E-01  0.551173299301E-01
  0.569096079985E-01  0.587601664785E-01  0.606709005037E-01  0.626437668327E-01  0.646807858531E-01
  0.667840436502E-01  0.689556941439E-01  0.711979612940E-01  0.735131413781E-01  0.759036053429E-01
  0.783718012323E-01  0.809202566946E-01  0.835515815710E-01  0.862684705680E-01  0.890737060173E-01
  0.919701607253E-01  0.949608009146E-01  0.980486892621E-01  0.101236988035E+00  0.104528962331E+00
  0.107927983418E+00  0.111437532191E+00  0.115061202736E+00  0.118802706006E+00  0.122665873629E+00
  0.126654661825E+00  0.130773155463E+00  0.135025572240E+00  0.139416267001E+00  0.143949736203E+00
  0.148630622514E+00  0.153463719570E+00  0.158453976885E+00  0.163606504919E+00  0.168926580311E+00
  0.174419651282E+00  0.180091343218E+00  0.185947464426E+00  0.191994012087E+00  0.198237178394E+00
  0.204683356894E+00  0.211339149038E+00  0.218211370938E+00  0.225307060350E+00  0.232633483880E+00
  0.240198144426E+00  0.248008788862E+00  0.256073415970E+00  0.264400284632E+00  0.272997922290E+00
  0.281875133676E+00  0.291041009831E+00  0.300504937412E+00  0.310276608309E+00  0.320366029566E+00
  0.330783533632E+00  0.341539788941E+00  0.352645810840E+00  0.364112972865E+00  0.375953018392E+00
  0.388178072662E+00  0.400800655199E+00  0.413833692631E+00  0.427290531926E+00  0.441184954065E+00
  0.455531188149E+00  0.470343925976E+00  0.485638337085E+00  0.501430084287E+00  0.517735339713E+00
  0.534570801369E+00  0.551953710238E+00  0.569901867939E+00  0.588433654953E+00  0.607568049450E+00
  0.627324646721E+00  0.647723679249E+00  0.668786037425E+00  0.690533290945E+00  0.712987710897E+00
  0.736172292568E+00  0.760110778997E+00  0.784827685286E+00  0.810348323706E+00  0.836698829621E+00
  0.863906188252E+00  0.891998262312E+00  0.921003820538E+00  0.950952567159E+00  0.981875172306E+00
  0.101380330343E+01  0.104676965773E+01  0.108080799563E+01  0.111595317536E+01  0.115224118866E+01
  0.118970919762E+01  0.122839557277E+01  0.126833993232E+01  0.130958318280E+01  0.135216756090E+01
  0.139613667673E+01  0.144153555852E+01  0.148841069869E+01  0.153681010148E+01  0.158678333211E+01
  0.163838156753E+01  0.169165764885E+01  0.174666613542E+01  0.180346336074E+01  0.186210749014E+01
  0.192265858033E+01  0.198517864092E+01  0.204973169791E+01  0.211638385927E+01  0.218520338264E+01
  0.225626074523E+01  0.232962871598E+01  0.240538243011E+01  0.248359946604E+01  0.256435992485E+01
  0.264774651231E+01  0.273384462358E+01  0.282274243063E+01  0.291453097259E+01  0.300930424895E+01
  0.310715931583E+01  0.320819638537E+01  0.331251892835E+01  0.342023378018E+01  0.353145125027E+01
  0.364628523503E+01  0.376485333451E+01  0.388727697278E+01  0.401368152237E+01  0.414419643257E+01
  0.427895536205E+01  0.441809631573E+01  0.456176178612E+01  0.471009889920E+01  0.486325956514E+01
  0.502140063385E+01  0.518468405560E+01  0.535327704688E+01  0.552735226166E+01  0.570708796815E+01
  0.589266823143E+01  0.608428310191E+01  0.628212880995E+01
 aepotential
  0.967852925134E+04  0.980231930720E+04  0.991731431994E+04  0.100227063780E+05  0.101177200256E+05
  0.102016191472E+05  0.102737168616E+05  0.103333845424E+05  0.103800614346E+05  0.104132626678E+05
  0.104325873000E+05  0.104377250922E+05  0.104284621382E+05  0.104046852385E+05  0.103663850659E+05
  0.103136574293E+05  0.102467032668E+05  0.101658269845E+05  0.100714331155E+05  0.996402141731E+04
  0.984418107515E+04  0.971258189686E+04  0.956996770718E+04  0.941714437854E+04  0.925497131637E+04
  0.908434920004E+04  0.890620991555E+04  0.872150437560E+04  0.853119239678E+04  0.833623126779E+04
  0.813756619415E+04  0.793612073551E+04  0.773278842043E+04  0.752842527285E+04  0.732384335903E+04
  0.711980544902E+04  0.691702081325E+04  0.671614209365E+04  0.651776317548E+04  0.632241812895E+04
  0.613058102063E+04  0.594266658650E+04  0.575903159115E+04  0.557997685374E+04  0.540574978331E+04
  0.523654732735E+04  0.507251925057E+04  0.491377163480E+04  0.476037052084E+04  0.461234561443E+04
  0.446969398680E+04  0.433238371304E+04  0.420035739883E+04  0.407353555652E+04  0.395181979986E+04
  0.383509583521E+04  0.372323623367E+04  0.361610297625E+04  0.351354976762E+04  0.341542412186E+04
  0.332156922348E+04  0.323182557630E+04  0.314603243962E+04  0.306402908731E+04  0.298565587236E+04
  0.291075513727E+04  0.283917197694E+04  0.277075485292E+04  0.270535610495E+04  0.264283233864E+04
  0.258304472645E+04  0.252585923013E+04  0.247114673122E+04  0.241878312900E+04  0.236864935764E+04
  0.232063138006E+04  0.227462012721E+04  0.223051142475E+04  0.218820587732E+04  0.214760874988E+04
  0.210862981877E+04  0.207118322332E+04  0.203518730302E+04  0.200056443321E+04  0.196724085164E+04
  0.193514649438E+04  0.190421482266E+04  0.187438265698E+04  0.184559001394E+04  0.181777994499E+04
  0.179089838268E+04  0.176489399013E+04  0.173971801584E+04  0.171532415633E+04  0.169166842259E+04
  0.166870901240E+04  0.164640619202E+04  0.162472217839E+04  0.160362103172E+04  0.158306855180E+04
  0.156303217983E+04  0.154348090602E+04  0.152438518227E+04  0.150571684037E+04  0.148744901285E+04
  0.146955606164E+04  0.145201350923E+04  0.143479797286E+04  0.141788710625E+04  0.140125954036E+04
  0.138489483299E+04  0.136877341770E+04  0.135287655770E+04  0.133718630286E+04  0.132168544990E+04
  0.130635750467E+04  0.129118664779E+04  0.127615770248E+04  0.126125610529E+04  0.124646787916E+04
  0.123177960802E+04  0.121717841499E+04  0.120265194112E+04  0.118818832774E+04  0.117377619947E+04
  0.115940465006E+04  0.114506322985E+04  0.113074193480E+04  0.111643119788E+04  0.110212188203E+04
  0.108780527461E+04  0.107347308444E+04  0.105911743969E+04  0.104473088836E+04  0.103030640034E+04
  0.101583737122E+04  0.100131762838E+04  0.986741438899E+03  0.972103519620E+03  0.957399049504E+03
  0.942623684264E+03  0.927773573437E+03  0.912845380240E+03  0.897836304003E+03  0.882744105822E+03
  0.867567137177E+03  0.852304372099E+03  0.836955442862E+03  0.821520679408E+03  0.806001152808E+03
  0.790398722659E+03  0.774716088562E+03  0.758956845553E+03  0.743125543096E+03  0.727227747135E+03
  0.711270104277E+03  0.695260406710E+03  0.679207655855E+03  0.663122122150E+03  0.647015397289E+03
  0.630900434407E+03  0.614791570451E+03  0.598704523925E+03  0.582656360045E+03  0.566665414755E+03
  0.550751168912E+03  0.534934065200E+03  0.519235263302E+03  0.503676334667E+03  0.488278907781E+03
  0.473064289312E+03  0.458053106690E+03  0.443265043702E+03  0.428718770961E+03  0.414432203085E+03
  0.400423234934E+03  0.386711104890E+03  0.373318481934E+03  0.360274250208E+03  0.347616750470E+03
  0.335396937665E+03  0.323680580405E+03  0.312548383557E+03  0.302092895380E+03  0.292411600049E+03
  0.283596291430E+03  0.275720261352E+03  0.268825647590E+03  0.262913741504E+03  0.257940446741E+03
  0.253817780552E+03  0.250420874716E+03  0.247598947288E+03  0.245188337995E+03  0.243025677825E+03
  0.240959355251E+03  0.238857750743E+03  0.236613455863E+03  0.234143747738E+03  0.231388442699E+03
  0.228306497720E+03  0.224872416414E+03  0.221073011317E+03  0.216904689560E+03  0.212371252540E+03
  0.207482162941E+03  0.202251239104E+03  0.196695740577E+03  0.190835798230E+03  0.184694129839E+03
  0.178295971486E+03  0.171669151533E+03  0.164844232115E+03  0.157854643729E+03  0.150736739448E+03
  0.143529702510E+03  0.136275262388E+03  0.129017223842E+03  0.121800904027E+03  0.114672710770E+03
  0.107680257435E+03  0.100873520337E+03  0.943074492585E+02  0.880459297294E+02  0.821659337622E+02
  0.767592823539E+02  0.719284545465E+02  0.677734631946E+02  0.643696144920E+02  0.617404357230E+02
  0.598347543068E+02  0.585207053267E+02  0.576074779552E+02  0.568916912711E+02  0.562048590500E+02
  0.554350990138E+02  0.545181777034E+02  0.534152090319E+02  0.520955359077E+02  0.505309993259E+02
  0.486978612475E+02  0.465804240064E+02  0.441728229738E+02  0.414784533468E+02  0.385080477250E+02
  0.352775750296E+02  0.318066573249E+02  0.281177221217E+02  0.242358321405E+02  0.201890332336E+02
  0.160090330649E+02  0.117319811130E+02  0.739902138043E+01  0.305612257664E+01 -0.124748129613E+01
 -0.546291016246E+01 -0.954747927750E+01 -0.134713892174E+02 -0.172208770397E+02 -0.207894463746E+02
 -0.241476069423E+02 -0.271923802285E+02 -0.297088428704E+02 -0.314096795286E+02 -0.320997936350E+02
 -0.318929996257E+02 -0.312404968161E+02 -0.306296559352E+02 -0.302796163059E+02 -0.301663213165E+02
 -0.302021898546E+02 -0.303348069584E+02 -0.305566978987E+02 -0.308848949830E+02 -0.313403696746E+02
 -0.319360647041E+02 -0.326736252095E+02 -0.335453795974E+02 -0.345379208149E+02 -0.356351693983E+02
 -0.368202835283E+02 -0.380765749988E+02 -0.393877898121E+02 -0.407380681002E+02 -0.421117903282E+02
 -0.434934263002E+02 -0.448674644321E+02 -0.462184455931E+02 -0.475311352669E+02 -0.487908200455E+02
 -0.499836835350E+02 -0.510971977559E+02 -0.521203759774E+02 -0.530437728637E+02 -0.538591374180E+02
 -0.545587932649E+02 -0.551350692407E+02 -0.555803214305E+02 -0.558880499067E+02 -0.560550795730E+02
 -0.560838873781E+02 -0.559836140397E+02 -0.557688364572E+02 -0.554565384458E+02 -0.550628957916E+02
 -0.546012064981E+02 -0.540813919790E+02 -0.535105559688E+02 -0.528938971310E+02 -0.522355175992E+02
 -0.515389675712E+02 -0.508075617048E+02 -0.500445409977E+02 -0.492531499516E+02 -0.484366679430E+02
 -0.475984097277E+02 -0.467417115713E+02 -0.458698779748E+02 -0.449861290549E+02 -0.440935111782E+02
 -0.431947989632E+02 -0.422923922940E+02 -0.413882199453E+02 -0.404836774957E+02 -0.395796168257E+02
 -0.386764085822E+02 -0.377740789655E+02 -0.368725116442E+02 -0.359716711011E+02 -0.350718265655E+02
 -0.341737195508E+02 -0.332786612653E+02 -0.323885471353E+02 -0.315057941122E+02 -0.306332144326E+02
 -0.297738426919E+02 -0.289307334733E+02 -0.281067472533E+02 -0.273043443402E+02 -0.265254093624E+02
 -0.257711294412E+02 -0.250419446041E+02 -0.243375781110E+02 -0.236571395512E+02 -0.229992797453E+02
 -0.223623685725E+02 -0.217446670070E+02 -0.211444715819E+02 -0.205602196391E+02 -0.199905534109E+02
 -0.194343478912E+02 -0.188907109816E+02 -0.183589651041E+02 -0.178386183949E+02 -0.173293317259E+02
 -0.168308858269E+02 -0.163431510869E+02 -0.158660613263E+02 -0.153995919584E+02 -0.149437424178E+02
 -0.144985224443E+02 -0.140639416877E+02 -0.136400020814E+02
 core charge-density
  0.181648061585E-01  0.192656720366E-01  0.204329975892E-01  0.216707708671E-01  0.229832169372E-01
  0.243748117519E-01  0.258502968088E-01  0.274146946457E-01  0.290733252140E-01  0.308318231804E-01
  0.326961562044E-01  0.346726442464E-01  0.367679799594E-01  0.389892502229E-01  0.413439588785E-01
  0.438400507306E-01  0.464859368780E-01  0.492905214453E-01  0.522632297860E-01  0.554140382322E-01
  0.587535054692E-01  0.622928056177E-01  0.660437631062E-01  0.700188894249E-01  0.742314218508E-01
  0.786953642403E-01  0.834255299891E-01  0.884375872601E-01  0.937481065876E-01  0.993746109664E-01
  0.105335628540E+00  0.111650748002E+00  0.118340676839E+00  0.125427302524E+00  0.132933756805E+00
  0.140884483205E+00  0.149305307870E+00  0.158223513901E+00  0.167667919313E+00  0.177668958741E+00
  0.188258769059E+00  0.199471279034E+00  0.211342303163E+00  0.223909639837E+00  0.237213173966E+00
  0.251294984210E+00  0.266199454940E+00  0.281973393076E+00  0.298666149908E+00  0.316329748037E+00
  0.335019013535E+00  0.354791713426E+00  0.375708698579E+00  0.397834052092E+00  0.421235243209E+00
  0.445983286834E+00  0.472152908635E+00  0.499822715747E+00  0.529075373039E+00  0.559997784865E+00
  0.592681282215E+00  0.627221815105E+00  0.663720150038E+00  0.702282072280E+00  0.743018592674E+00
  0.786046158630E+00  0.831486868865E+00  0.879468691415E+00  0.930125684318E+00  0.983598218313E+00
  0.104003320078E+01  0.109958430008E+01  0.116241216921E+01  0.122868466780E+01  0.129857708107E+01
  0.137227233437E+01  0.144996120183E+01  0.153184250720E+01  0.161812331516E+01  0.170901911085E+01
  0.180475396523E+01  0.190556068396E+01  0.201168093664E+01  0.212336536370E+01  0.224087365731E+01
  0.236447461296E+01  0.249444614760E+01  0.263107528024E+01  0.277465807042E+01  0.292549950965E+01
  0.308391336067E+01  0.325022193885E+01  0.342475582992E+01  0.360785353755E+01  0.379986105432E+01
  0.400113134881E+01  0.421202376170E+01  0.443290330281E+01  0.466413984139E+01  0.490610718096E+01
  0.515918201029E+01  0.542374272152E+01  0.570016808651E+01  0.598883578207E+01  0.629012075500E+01
  0.660439341769E+01  0.693201766517E+01  0.727334870493E+01  0.762873069098E+01  0.799849415421E+01
  0.838295322202E+01  0.878240262063E+01  0.919711445514E+01  0.962733476322E+01  0.100732798403E+02
  0.105351323355E+02  0.110130371212E+02  0.115070969383E+02  0.120173678272E+02  0.125438543527E+02
  0.130865046381E+02  0.136452052264E+02  0.142197757915E+02  0.148099637276E+02  0.154154386492E+02
  0.160357868419E+02  0.166705057098E+02  0.173189982714E+02  0.179805677643E+02  0.186544124267E+02
  0.193396205316E+02  0.200351657562E+02  0.207399029819E+02  0.214525646232E+02  0.221717575973E+02
  0.228959610520E+02  0.236235249773E+02  0.243526698357E+02  0.250814873498E+02  0.258079425940E+02
  0.265298775395E+02  0.272450162045E+02  0.279509715626E+02  0.286452543594E+02  0.293252839825E+02
  0.299884015221E+02  0.306318851469E+02  0.312529679053E+02  0.318488580382E+02  0.324167618673E+02
  0.329539092892E+02  0.334575818704E+02  0.339251434942E+02  0.343540734617E+02  0.347420018954E+02
  0.350867472297E+02  0.353863555086E+02  0.356391411356E+02  0.358437286448E+02  0.359990949810E+02
  0.361046116909E+02  0.361600863449E+02  0.361658024216E+02  0.361225568082E+02  0.360316939890E+02
  0.358951359300E+02  0.357154066059E+02  0.354956500730E+02  0.352396409662E+02  0.349517862924E+02
  0.346371174132E+02  0.343012711583E+02  0.339504590934E+02  0.335914240805E+02  0.332313834227E+02
  0.328779580796E+02  0.325390876725E+02  0.322229312692E+02  0.319377542557E+02  0.316918019447E+02
  0.314931609566E+02  0.313496098157E+02  0.312684606375E+02  0.312563942221E+02  0.313192913700E+02
  0.314620635987E+02  0.316884869942E+02  0.320010432577E+02  0.324007723932E+02  0.328871417477E+02
  0.334579362864E+02  0.341091750355E+02  0.348350585315E+02  0.356279518730E+02  0.364784075570E+02
  0.373752316840E+02  0.383055963467E+02  0.392552000662E+02  0.402084770298E+02  0.411488546253E+02
  0.420590573554E+02  0.429214536871E+02  0.437184407558E+02  0.444328601552E+02  0.450484363575E+02
  0.455502276697E+02  0.459250781221E+02  0.461620573565E+02  0.462528745182E+02  0.461922514211E+02
  0.459782399331E+02  0.456124686875E+02  0.451003049219E+02  0.444509185533E+02  0.436772375279E+02
  0.427957860793E+02  0.418264007573E+02  0.407918229249E+02  0.397171707718E+02  0.386292986364E+02
  0.375560564026E+02  0.365254667173E+02  0.355648425289E+02  0.346998717027E+02  0.339536989871E+02
  0.333460381929E+02  0.328923489875E+02  0.326031131657E+02  0.324832446051E+02  0.325316653949E+02
  0.327410773288E+02  0.330979534208E+02  0.335827661975E+02  0.341704589733E+02  0.348311525266E+02
  0.355310664421E+02  0.362336247422E+02  0.369007090688E+02  0.374940169916E+02  0.379764765335E+02
  0.383136616527E+02  0.384751491916E+02  0.384357571001E+02  0.381766069081E+02  0.376859600076E+02
  0.369597865708E+02  0.360020371776E+02  0.348245998785E+02  0.334469389519E+02  0.318954255037E+02
  0.302023837762E+02  0.284048900337E+02  0.265433726845E+02  0.246600723663E+02  0.227974286044E+02
  0.209964648296E+02  0.192952454552E+02  0.177274767266E+02  0.163213164639E+02  0.150984459867E+02
  0.140734398655E+02  0.132534464369E+02  0.126381679887E+02  0.122201131955E+02  0.119850993977E+02
  0.119130125519E+02  0.119788598640E+02  0.121541046808E+02  0.124081463870E+02  0.127097542160E+02
  0.130283587827E+02  0.133351959785E+02  0.136043022942E+02  0.138133383567E+02  0.139442094426E+02
  0.139834578024E+02  0.139224156020E+02  0.137571249157E+02  0.134880480913E+02  0.131196045890E+02
  0.126595779682E+02  0.121184393290E+02  0.115086323215E+02  0.108438606977E+02  0.101384132715E+02
  0.940655390750E+01  0.866199634465E+01  0.791747619463E+01  0.718442536639E+01  0.647274818705E+01
  0.579069349710E+01  0.514481311448E+01  0.453999434423E+01  0.397955244703E+01  0.346536822410E+01
  0.299805611788E+01  0.257714938915E+01  0.220129097453E+01  0.186842118571E+01  0.157595596791E+01
  0.132095134445E+01  0.110025063345E+01  0.910611402011E+00  0.748809812801E+00  0.611721375824E+00
  0.496379353584E+00  0.400013622490E+00  0.320073757938E+00  0.254240020182E+00  0.200425361845E+00
  0.156770901622E+00  0.121636726743E+00  0.935894453694E-01  0.713875862082E-01  0.539657004485E-01
  0.404178355548E-01  0.299809051185E-01  0.220183639940E-01  0.160045058308E-01  0.115096245234E-01
  0.818621744465E-02  0.575635315633E-02  0.400027729330E-02  0.274628673328E-02  0.186186368210E-02
  0.124602838679E-02  0.822842279236E-03  0.535972868541E-03  0.344217695750E-03  0.217876823718E-03
  0.135861022795E-03  0.834251407203E-04  0.504221576308E-04  0.299821496076E-04  0.175308970101E-04
  0.100743290420E-04  0.568664140929E-05  0.315113064397E-05  0.171307756421E-05  0.913068712148E-06
  0.476813945833E-06  0.243784106641E-06  0.121942369105E-06  0.596306700054E-07  0.284849696915E-07
  0.132816146164E-07  0.603985046624E-08  0.267661505285E-08  0.115496002330E-08  0.484839755984E-09
  0.197833529739E-09  0.783939393057E-10  0.301401837878E-10  0.112325531106E-10  0.405374220406E-11
  0.141527670496E-11  0.477510029960E-12  0.155529531843E-12  0.488483628986E-13  0.147772973250E-13
  0.430062665686E-14  0.120261393422E-14  0.322720080892E-15
 kinetic energy-density
  0.126644644886E+06  0.126607756267E+06  0.126587351534E+06  0.126583871684E+06  0.126597769739E+06
  0.126629511661E+06  0.126679576702E+06  0.126748458823E+06  0.126836667337E+06  0.126944728053E+06
  0.127073184506E+06  0.127222599076E+06  0.127393554267E+06  0.127586654069E+06  0.127802525483E+06
  0.128041819575E+06  0.128305213571E+06  0.128593411903E+06  0.128907148143E+06  0.129247186720E+06
  0.129614323587E+06  0.130009389836E+06  0.130433251805E+06  0.130886813151E+06  0.131371016968E+06
  0.131886847494E+06  0.132435331186E+06  0.133017540112E+06  0.133634591925E+06  0.134287652961E+06
  0.134977939736E+06  0.135706720809E+06  0.136475318993E+06  0.137285113273E+06  0.138137540742E+06
  0.139034099157E+06  0.139976348945E+06  0.140965915769E+06  0.142004492702E+06  0.143093843110E+06
  0.144235803248E+06  0.145432285130E+06  0.146685279414E+06  0.147996858662E+06  0.149369180494E+06
  0.150804491080E+06  0.152305128693E+06  0.153873527451E+06  0.155512221235E+06  0.157223847754E+06
  0.159011152784E+06  0.160876994579E+06  0.162824348446E+06  0.164856311485E+06  0.166976107499E+06
  0.169187092063E+06  0.171492757750E+06  0.173896739525E+06  0.176402820268E+06  0.179014936468E+06
  0.181737183982E+06  0.184573824107E+06  0.187529289487E+06  0.190608190338E+06  0.193815320757E+06
  0.197155664904E+06  0.200634403554E+06  0.204256920370E+06  0.208028808426E+06  0.211955876574E+06
  0.216044155720E+06  0.220299905332E+06  0.224729619325E+06  0.229340032244E+06  0.234138124944E+06
  0.239131130230E+06  0.244326537866E+06  0.249732099662E+06  0.255355833509E+06  0.261206027480E+06
  0.267291242945E+06  0.273620316991E+06  0.280202364213E+06  0.287046777484E+06  0.294163227583E+06
  0.301561661854E+06  0.309252301418E+06  0.317245636949E+06  0.325552422932E+06  0.334183669932E+06
  0.343150635109E+06  0.352464810410E+06  0.362137908481E+06  0.372181845810E+06  0.382608723375E+06
  0.393430803714E+06  0.404660485130E+06  0.416310272014E+06  0.428392741288E+06  0.440920504731E+06
  0.453906166788E+06  0.467362277506E+06  0.481301280356E+06  0.495735454701E+06  0.510676852388E+06
  0.526137227867E+06  0.542127962919E+06  0.558659982911E+06  0.575743668032E+06  0.593388755017E+06
  0.611604232980E+06  0.630398230090E+06  0.649777893015E+06  0.669749257206E+06  0.690317109396E+06
  0.711484841222E+06  0.733254294439E+06  0.755625597561E+06  0.778596994156E+06  0.802164663392E+06
  0.826322532356E+06  0.851062081697E+06  0.876372144361E+06  0.902238698694E+06  0.928644656815E+06
  0.955569649148E+06  0.982989806837E+06  0.101087754340E+07  0.103920133728E+07  0.106792551777E+07
  0.109701005613E+07  0.112641036479E+07  0.115607710725E+07  0.118595602198E+07  0.121598776353E+07
  0.124610776466E+07  0.127624612326E+07  0.130632751847E+07  0.133627116006E+07  0.136599077614E+07
  0.139539464357E+07  0.142438566627E+07  0.145286150616E+07  0.148071477203E+07  0.150783327098E+07
  0.153410032731E+07  0.155939517342E+07  0.158359341671E+07  0.160656758640E+07  0.162818776304E+07
  0.164832229327E+07  0.166683859105E+07  0.168360402581E+07  0.169848689669E+07  0.171135749045E+07
  0.172208921959E+07  0.173055983490E+07  0.173665270549E+07  0.174025815685E+07  0.174127485585E+07
  0.173961122927E+07  0.173518690028E+07  0.172793412541E+07  0.171779921199E+07  0.170474389468E+07
  0.168874664730E+07  0.166980390510E+07  0.164793117122E+07  0.162316398026E+07  0.159555869172E+07
  0.156519308620E+07  0.153216673837E+07  0.149660114210E+07  0.145863956574E+07  0.141844661858E+07
  0.137620751312E+07  0.133212701233E+07  0.128642805579E+07  0.123935006353E+07  0.119114692181E+07
  0.114208466034E+07  0.109243883600E+07  0.104249164643E+07  0.992528796989E+06  0.942836172675E+06
  0.893696356152E+06  0.845385053138E+06  0.798167503167E+06  0.752294948108E+06  0.708001235920E+06
  0.665499631483E+06  0.624979898822E+06  0.586605711221E+06  0.550512439032E+06  0.516805359599E+06
  0.485558329063E+06  0.456812950920E+06  0.430578270320E+06  0.406831015670E+06  0.385516399820E+06
  0.366549481943E+06  0.349817078759E+06  0.335180200462E+06  0.322476973350E+06  0.311525998326E+06
  0.302130082642E+06  0.294080271927E+06  0.287160100869E+06  0.281149974112E+06  0.275831584069E+06
  0.270992269320E+06  0.266429216335E+06  0.261953408117E+06  0.257393226321E+06  0.252597618376E+06
  0.247438748207E+06  0.241814058639E+06  0.235647685490E+06  0.228891178139E+06  0.221523498794E+06
  0.213550292919E+06  0.205002445152E+06  0.195933957590E+06  0.186419208529E+06  0.176549668057E+06
  0.166430162815E+06  0.156174797705E+06  0.145902661869E+06  0.135733470046E+06  0.125783313798E+06
  0.116160712118E+06  0.106963121688E+06  0.982740693326E+05  0.901609597080E+05  0.826736017904E+05
  0.758434317015E+05  0.696834133747E+05  0.641886026280E+05  0.593373504347E+05  0.550930932616E+05
  0.514066449562E+05  0.482188758535E+05  0.454636441143E+05  0.430708330821E+05  0.409693477212E+05
  0.390899327154E+05  0.373676931438E+05  0.357442228180E+05  0.341692733071E+05  0.326019250686E+05
  0.310112496576E+05  0.293764762836E+05  0.276866964937E+05  0.259401566676E+05  0.241432000359E+05
  0.223089293022E+05  0.204556694695E+05  0.186053199437E+05  0.167816948169E+05  0.150089552576E+05
  0.133102295886E+05  0.117064754426E+05  0.102155706474E+05  0.885156801234E+04  0.762407816610E+04
  0.653788649210E+04  0.559300336850E+04  0.478522174756E+04  0.410694046700E+04  0.354793774995E+04
  0.309602863597E+04  0.273770279817E+04  0.245877388890E+04  0.224500779295E+04  0.208268907124E+04
  0.195909804021E+04  0.186288175590E+04  0.178430940848E+04  0.171540985905E+04  0.164999739989E+04
  0.158359962053E+04  0.151330699509E+04  0.143756681917E+04  0.135594430006E+04  0.126887184790E+04
  0.117740425206E+04  0.108299337639E+04  0.987291752880E+03  0.891990399630E+03  0.798692758851E+03
  0.708823910438E+03  0.623572269915E+03  0.543859626338E+03  0.470334718903E+03  0.403385225449E+03
  0.343163000481E+03  0.289617630239E+03  0.242533853483E+03  0.201569202045E+03  0.166289351433E+03
  0.136199925157E+03  0.110774451748E+03  0.894784855381E+02  0.717896363283E+02  0.572130817424E+02
  0.452922213344E+02  0.356147671067E+02  0.278150448778E+02  0.215735219606E+02  0.166145108645E+02
  0.127027937606E+02  0.963969778814E+01  0.725898021557E+01  0.542276067819E+01  0.401765269330E+01
  0.295118633700E+01  0.214857097819E+01  0.154981617337E+01  0.110720816440E+01  0.783125465060E+00
  0.548169031351E+00  0.379578172866E+00  0.259901774727E+00  0.175894568806E+00  0.117609406481E+00
  0.776583365207E-01  0.506174641513E-01  0.325529051436E-01  0.206475441029E-01  0.129107011642E-01
  0.795514214442E-02  0.482809172286E-02  0.288497466599E-02  0.169648901571E-02  0.981290780547E-03
  0.558040598289E-03  0.311835364150E-03  0.171131844852E-03  0.921763741957E-04  0.486980628810E-04
  0.252179562342E-04  0.127909017995E-04  0.634977503832E-05  0.308277783244E-05  0.146252658031E-05
  0.677463423810E-06  0.306143231980E-06  0.134849832266E-06  0.578478870362E-07  0.241464999368E-07
  0.979855105343E-08  0.386201588385E-08  0.147708453667E-08  0.547671555025E-09  0.196667087955E-09
  0.683282911440E-10  0.229442578232E-10  0.743849007232E-11  0.232568141165E-11  0.700440757085E-12
  0.202970252722E-12  0.565196433265E-13  0.151049810806E-13
 mkinetic energy-density pseudized
  0.335903198528E-05  0.358103846475E-05  0.381771788473E-05  0.407004001500E-05  0.433903871978E-05
  0.462581619383E-05  0.493154747861E-05  0.525748527687E-05  0.560496508549E-05  0.597541066753E-05
  0.637033988595E-05  0.679137092292E-05  0.724022891011E-05  0.771875299730E-05  0.822890388803E-05
  0.877277187345E-05  0.935258539704E-05  0.997072018541E-05  0.106297089826E-04  0.113322519279E-04
  0.120812276190E-04  0.128797049070E-04  0.137309554710E-04  0.146384672227E-04  0.156059585986E-04
  0.166373937952E-04  0.177369990124E-04  0.189092797695E-04  0.201590393664E-04  0.214913985646E-04
  0.229118165685E-04  0.244261133947E-04  0.260404937181E-04  0.277615722956E-04  0.295964010686E-04
  0.315524980584E-04  0.336378781697E-04  0.358610860314E-04  0.382312310069E-04  0.407580245189E-04
  0.434518198407E-04  0.463236545178E-04  0.493852955930E-04  0.526492878203E-04  0.561290050658E-04
  0.598387051056E-04  0.637935880453E-04  0.680098586007E-04  0.725047924947E-04  0.772968072428E-04
  0.824055376163E-04  0.878519160936E-04  0.936582586286E-04  0.998483560875E-04  0.106447571729E-03
  0.113482945126E-03  0.120983302960E-03  0.128979377130E-03  0.137503930677E-03  0.146591892023E-03
  0.156280498087E-03  0.166609446860E-03  0.177621060056E-03  0.189360456527E-03  0.201875737125E-03
  0.215218181792E-03  0.229442459669E-03  0.244606853098E-03  0.260773496420E-03  0.278008630566E-03
  0.296382874463E-03  0.315971514389E-03  0.336854812441E-03  0.359118335396E-03  0.382853305307E-03
  0.408156973267E-03  0.435133017877E-03  0.463891970048E-03  0.494551665880E-03  0.527237729471E-03
  0.562084087632E-03  0.599233518624E-03  0.638838237158E-03  0.681060518058E-03  0.726073361141E-03
  0.774061200040E-03  0.825220657867E-03  0.879761352824E-03  0.937906757051E-03  0.999895112234E-03
  0.106598040572E-02  0.113643341116E-02  0.121154279787E-02  0.129161631361E-02  0.137698204540E-02
  0.146798976377E-02  0.156501235574E-02  0.166844735264E-02  0.177871855872E-02  0.189627778756E-02
  0.202160671308E-02  0.215521884296E-02  0.229766162245E-02  0.244951867717E-02  0.261141220417E-02
  0.278400552095E-02  0.296800578292E-02  0.316416688044E-02  0.337329252732E-02  0.359623955328E-02
  0.383392141413E-02  0.408731193373E-02  0.435744929330E-02  0.464544028424E-02  0.495246484198E-02
  0.527978087933E-02  0.562872943924E-02  0.600074018788E-02  0.639733727069E-02  0.682014555524E-02
  0.727089728657E-02  0.775143918205E-02  0.826373999503E-02  0.880989857797E-02  0.939215247826E-02
  0.100128871017E-01  0.106746454811E-01  0.113801386904E-01  0.121322569459E-01  0.129340814411E-01
  0.137888969627E-01  0.147002053401E-01  0.156717397817E-01  0.167074801591E-01  0.178116692995E-01
  0.189888303535E-01  0.202437853092E-01  0.215816747286E-01  0.230079787861E-01  0.245285396949E-01
  0.261495856137E-01  0.278777561300E-01  0.297201294243E-01  0.316842512258E-01  0.337781656782E-01
  0.360104482392E-01  0.383902407501E-01  0.409272888164E-01  0.436319816510E-01  0.465153945438E-01
  0.495893341281E-01  0.528663866276E-01  0.563599692814E-01  0.600843851530E-01  0.640548815463E-01
  0.682877122650E-01  0.728002039666E-01  0.776108268786E-01  0.827392701627E-01  0.882065222307E-01
  0.940349563344E-01  0.100248421774E+00  0.106872341093E+00  0.113933813643E+00  0.121461725944E+00
  0.129486869267E+00  0.138042064924E+00  0.147162297748E+00  0.156884858305E+00  0.167249494402E+00
  0.178298572481E+00  0.190077249546E+00  0.202633656298E+00  0.216019092194E+00  0.230288233197E+00
  0.245499353025E+00  0.261714558770E+00  0.279000041781E+00  0.297426344808E+00  0.317068646405E+00
  0.338007063701E+00  0.360326974698E+00  0.384119361291E+00  0.409481174338E+00  0.436515722131E+00
  0.465333083709E+00  0.496050548574E+00  0.528793084386E+00  0.563693834380E+00  0.600894646280E+00
  0.640546634616E+00  0.682810778443E+00  0.727858556550E+00  0.775872622379E+00  0.827047520952E+00
  0.881590450254E+00  0.939722069581E+00  0.100167735753E+01  0.106770652240E+01  0.113807596782E+01
  0.121306931674E+01  0.129298849668E+01  0.137815488963E+01  0.146891054981E+01  0.156561949264E+01
  0.166866905850E+01  0.177847135468E+01  0.189546477921E+01  0.202011563003E+01  0.215291980322E+01
  0.229440458376E+01  0.244513053225E+01  0.260569347110E+01  0.277672657316E+01  0.295890255590E+01
  0.315293598365E+01  0.335958568015E+01  0.357965725313E+01  0.381400573205E+01  0.406353831926E+01
  0.432921725412E+01  0.461206278837E+01  0.491315626984E+01  0.523364332996E+01  0.557473716902E+01
  0.593772193059E+01  0.632395615451E+01  0.673487629473E+01  0.717200028517E+01  0.763693113303E+01
  0.813136051440E+01  0.865707234239E+01  0.921594627213E+01  0.980996110051E+01  0.104411980113E+02
  0.111118436079E+02  0.118241926666E+02  0.125806505318E+02  0.133837350654E+02  0.142360780438E+02
  0.151404258882E+02  0.160996395892E+02  0.171166936754E+02  0.181946740489E+02  0.193367744921E+02
  0.205462916226E+02  0.218266180459E+02  0.231812334268E+02  0.246136931653E+02  0.261276143300E+02
  0.277266584641E+02  0.294145108366E+02  0.311948556726E+02  0.330713468515E+02  0.350475735166E+02
  0.371270199950E+02  0.393130193838E+02  0.416087001145E+02  0.440169247712E+02  0.465402204054E+02
  0.491806995701E+02  0.519399712828E+02  0.548190411366E+02  0.578181998079E+02  0.609368992671E+02
  0.641736160904E+02  0.675257014133E+02  0.709892172553E+02  0.745587592071E+02  0.782272658108E+02
  0.819858153964E+02  0.858234116829E+02  0.897267601286E+02  0.936800378329E+02  0.976646607861E+02
  0.101659053435E+03  0.105638426914E+03  0.109574573890E+03  0.113435689787E+03  0.117186232211E+03
  0.120786832657E+03  0.124194277016E+03  0.127361573978E+03  0.130238133041E+03  0.132770076331E+03
  0.134900710748E+03  0.136571188634E+03  0.137721386158E+03  0.138291028236E+03  0.138221086820E+03
  0.137455474912E+03  0.135943051207E+03  0.133639938755E+03  0.130512144652E+03  0.126538445474E+03
  0.121713473861E+03  0.116050904519E+03  0.109586592139E+03  0.102381459166E+03  0.945238684047E+02
  0.861311456837E+02  0.773498443445E+02  0.683542712777E+02  0.593427314925E+02  0.505309059571E+02
  0.421417708088E+02  0.343915145167E+02  0.274710371794E+02  0.215228507714E+02  0.166135712424E+02
  0.127027937606E+02  0.963969778814E+01  0.725898021557E+01  0.542276067819E+01  0.401765269330E+01
  0.295118633700E+01  0.214857097819E+01  0.154981617337E+01  0.110720816440E+01  0.783125465060E+00
  0.548169031351E+00  0.379578172866E+00  0.259901774727E+00  0.175894568806E+00  0.117609406481E+00
  0.776583365207E-01  0.506174641513E-01  0.325529051436E-01  0.206475441029E-01  0.129107011642E-01
  0.795514214442E-02  0.482809172286E-02  0.288497466599E-02  0.169648901571E-02  0.981290780547E-03
  0.558040598289E-03  0.311835364150E-03  0.171131844852E-03  0.921763741957E-04  0.486980628810E-04
  0.252179562342E-04  0.127909017995E-04  0.634977503832E-05  0.308277783244E-05  0.146252658031E-05
  0.677463423810E-06  0.306143231980E-06  0.134849832266E-06  0.578478870362E-07  0.241464999368E-07
  0.979855105343E-08  0.386201588385E-08  0.147708453667E-08  0.547671555025E-09  0.196667087955E-09
  0.683282911440E-10  0.229442578232E-10  0.743849007232E-11  0.232568141165E-11  0.700440757085E-12
  0.202970252722E-12  0.565196433265E-13  0.151049810806E-13
 local pseudopotential core
 -0.182931178359E+03 -0.182931999765E+03 -0.182932795301E+03 -0.182933565781E+03 -0.182934311996E+03
 -0.182935034707E+03 -0.182935734657E+03 -0.182936412561E+03 -0.182937069114E+03 -0.182937704988E+03
 -0.182938320835E+03 -0.182938917284E+03 -0.182939494947E+03 -0.182940054414E+03 -0.182940596260E+03
 -0.182941121039E+03 -0.182941629287E+03 -0.182942121526E+03 -0.182942598259E+03 -0.182943059975E+03
 -0.182943507147E+03 -0.182943940231E+03 -0.182944359672E+03 -0.182944765899E+03 -0.182945159327E+03
 -0.182945540360E+03 -0.182945909387E+03 -0.182946266787E+03 -0.182946612925E+03 -0.182946948155E+03
 -0.182947272821E+03 -0.182947587254E+03 -0.182947891777E+03 -0.182948186701E+03 -0.182948472327E+03
 -0.182948748949E+03 -0.182949016848E+03 -0.182949276300E+03 -0.182949527568E+03 -0.182949770911E+03
 -0.182950006577E+03 -0.182950234807E+03 -0.182950455834E+03 -0.182950669883E+03 -0.182950877175E+03
 -0.182951077920E+03 -0.182951272323E+03 -0.182951460583E+03 -0.182951642891E+03 -0.182951819435E+03
 -0.182951990393E+03 -0.182952155940E+03 -0.182952316245E+03 -0.182952471471E+03 -0.182952621775E+03
 -0.182952767312E+03 -0.182952908227E+03 -0.182953044665E+03 -0.182953176765E+03 -0.182953304658E+03
 -0.182953428477E+03 -0.182953548344E+03 -0.182953664383E+03 -0.182953776708E+03 -0.182953885435E+03
 -0.182953990671E+03 -0.182954092522E+03 -0.182954191091E+03 -0.182954286476E+03 -0.182954378772E+03
 -0.182954468070E+03 -0.182954554459E+03 -0.182954638024E+03 -0.182954718847E+03 -0.182954797007E+03
 -0.182954872581E+03 -0.182954945641E+03 -0.182955016258E+03 -0.182955084500E+03 -0.182955150431E+03
 -0.182955214113E+03 -0.182955275606E+03 -0.182955334966E+03 -0.182955392249E+03 -0.182955447504E+03
 -0.182955500783E+03 -0.182955552130E+03 -0.182955601591E+03 -0.182955649206E+03 -0.182955695016E+03
 -0.182955739056E+03 -0.182955781360E+03 -0.182955821961E+03 -0.182955860888E+03 -0.182955898166E+03
 -0.182955933821E+03 -0.182955967873E+03 -0.182956000341E+03 -0.182956031241E+03 -0.182956060587E+03
 -0.182956088389E+03 -0.182956114655E+03 -0.182956139389E+03 -0.182956162594E+03 -0.182956184267E+03
 -0.182956204405E+03 -0.182956222998E+03 -0.182956240036E+03 -0.182956255504E+03 -0.182956269382E+03
 -0.182956281647E+03 -0.182956292274E+03 -0.182956301230E+03 -0.182956308481E+03 -0.182956313985E+03
 -0.182956317697E+03 -0.182956319567E+03 -0.182956319539E+03 -0.182956317550E+03 -0.182956313534E+03
 -0.182956307415E+03 -0.182956299113E+03 -0.182956288540E+03 -0.182956275599E+03 -0.182956260186E+03
 -0.182956242190E+03 -0.182956221488E+03 -0.182956197950E+03 -0.182956171434E+03 -0.182956141788E+03
 -0.182956108849E+03 -0.182956072441E+03 -0.182956032375E+03 -0.182955988450E+03 -0.182955940448E+03
 -0.182955888136E+03 -0.182955831266E+03 -0.182955769571E+03 -0.182955702766E+03 -0.182955630545E+03
 -0.182955552581E+03 -0.182955468527E+03 -0.182955378008E+03 -0.182955280625E+03 -0.182955175954E+03
 -0.182955063539E+03 -0.182954942893E+03 -0.182954813499E+03 -0.182954674802E+03 -0.182954526210E+03
 -0.182954367093E+03 -0.182954196776E+03 -0.182954014541E+03 -0.182953819621E+03 -0.182953611197E+03
 -0.182953388395E+03 -0.182953150284E+03 -0.182952895869E+03 -0.182952624091E+03 -0.182952333819E+03
 -0.182952023845E+03 -0.182951692884E+03 -0.182951339562E+03 -0.182950962417E+03 -0.182950559886E+03
 -0.182950130306E+03 -0.182949671901E+03 -0.182949182776E+03 -0.182948660914E+03 -0.182948104160E+03
 -0.182947510218E+03 -0.182946876639E+03 -0.182946200813E+03 -0.182945479953E+03 -0.182944711091E+03
 -0.182943891059E+03 -0.182943016480E+03 -0.182942083753E+03 -0.182941089038E+03 -0.182940028239E+03
 -0.182938896989E+03 -0.182937690630E+03 -0.182936404195E+03 -0.182935032388E+03 -0.182933569558E+03
 -0.182932009682E+03 -0.182930346334E+03 -0.182928572662E+03 -0.182926681356E+03 -0.182924664622E+03
 -0.182922514146E+03 -0.182920221059E+03 -0.182917775901E+03 -0.182915168583E+03 -0.182912388342E+03
 -0.182909423696E+03 -0.182906262395E+03 -0.182902891372E+03 -0.182899296685E+03 -0.182895463460E+03
 -0.182891375824E+03 -0.182887016842E+03 -0.182882368441E+03 -0.182877411334E+03 -0.182872124938E+03
 -0.182866487284E+03 -0.182860474921E+03 -0.182854062817E+03 -0.182847224248E+03 -0.182839930680E+03
 -0.182832151650E+03 -0.182823854621E+03 -0.182815004848E+03 -0.182805565219E+03 -0.182795496089E+03
 -0.182784755101E+03 -0.182773296999E+03 -0.182761073417E+03 -0.182748032659E+03 -0.182734119463E+03
 -0.182719274744E+03 -0.182703435315E+03 -0.182686533596E+03 -0.182668497286E+03 -0.182649249021E+03
 -0.182628706003E+03 -0.182606779590E+03 -0.182583374868E+03 -0.182558390172E+03 -0.182531716582E+03
 -0.182503237367E+03 -0.182472827385E+03 -0.182440352437E+03 -0.182405668558E+03 -0.182368621250E+03
 -0.182329044653E+03 -0.182286760633E+03 -0.182241577796E+03 -0.182193290413E+03 -0.182141677239E+03
 -0.182086500236E+03 -0.182027503168E+03 -0.181964410066E+03 -0.181896923549E+03 -0.181824722982E+03
 -0.181747462459E+03 -0.181664768585E+03 -0.181576238045E+03 -0.181481434919E+03 -0.181379887745E+03
 -0.181271086270E+03 -0.181154477877E+03 -0.181029463639E+03 -0.180895393971E+03 -0.180751563826E+03
 -0.180597207381E+03 -0.180431492171E+03 -0.180253512599E+03 -0.180062282751E+03 -0.179856728446E+03
 -0.179635678440E+03 -0.179397854675E+03 -0.179141861494E+03 -0.178866173694E+03 -0.178569123301E+03
 -0.178248884939E+03 -0.177903459648E+03 -0.177530656997E+03 -0.177128075346E+03 -0.176693080079E+03
 -0.176222779633E+03 -0.175713999183E+03 -0.175163251789E+03 -0.174566706886E+03 -0.173920155995E+03
 -0.173218975589E+03 -0.172458087137E+03 -0.171631914434E+03 -0.170734338493E+03 -0.169758650499E+03
 -0.168697503617E+03 -0.167542864858E+03 -0.166285968782E+03 -0.164917275554E+03 -0.163426436909E+03
 -0.161802274901E+03 -0.160032780074E+03 -0.158105138024E+03 -0.156005796214E+03 -0.153720586684E+03
 -0.151234924863E+03 -0.148534110243E+03 -0.145603761019E+03 -0.142430421605E+03 -0.139002388404E+03
 -0.135310803742E+03 -0.131351067868E+03 -0.127124610130E+03 -0.122641036879E+03 -0.117920627318E+03
 -0.112997070492E+03 -0.107920219508E+03 -0.102758482067E+03 -0.976002834439E+02 -0.925538679020E+02
 -0.877446175122E+02 -0.833091612726E+02 -0.793859191110E+02 -0.761024162638E+02 -0.735606434111E+02
 -0.718236939002E+02 -0.704138130311E+02 -0.681752108234E+02 -0.660141349152E+02 -0.639248052458E+02
 -0.619040627955E+02 -0.599490480223E+02 -0.580571520603E+02 -0.562259756435E+02 -0.544532961954E+02
 -0.527370384880E+02 -0.510752544834E+02 -0.494661025032E+02 -0.479078347236E+02 -0.463987834723E+02
 -0.449373533004E+02 -0.435220125928E+02 -0.421512879867E+02 -0.408237595424E+02 -0.395380569281E+02
 -0.382928563283E+02 -0.370868778855E+02 -0.359188835895E+02 -0.347876754236E+02 -0.336920937892E+02
 -0.326310160381E+02 -0.316033551769E+02 -0.306080586350E+02 -0.296441071159E+02 -0.287105134911E+02
 -0.278063217492E+02 -0.269306059992E+02 -0.260824695017E+02 -0.252610437418E+02 -0.244654875370E+02
 -0.236949861801E+02 -0.229487506062E+02 -0.222260165920E+02 -0.215260439769E+02 -0.208481159089E+02
 -0.201915381129E+02 -0.195556381813E+02 -0.189397648859E+02 -0.183432875110E+02 -0.177655952074E+02
 -0.172060963657E+02 -0.166642180106E+02 -0.161394052132E+02 -0.156311205222E+02 -0.151388434133E+02
 -0.146620697558E+02 -0.142003112960E+02 -0.137530951572E+02
 pspotential valence only
 -0.526329372116E+02 -0.526337586340E+02 -0.526345541876E+02 -0.526353246869E+02 -0.526360709212E+02
 -0.526367936542E+02 -0.526374936266E+02 -0.526381715554E+02 -0.526388281343E+02 -0.526394640359E+02
 -0.526400799118E+02 -0.526406763923E+02 -0.526412540884E+02 -0.526418135917E+02 -0.526423554755E+02
 -0.526428802945E+02 -0.526433885862E+02 -0.526438808712E+02 -0.526443576537E+02 -0.526448194219E+02
 -0.526452666490E+02 -0.526456997927E+02 -0.526461192970E+02 -0.526465255914E+02 -0.526469190919E+02
 -0.526473002018E+02 -0.526476693112E+02 -0.526480267983E+02 -0.526483730291E+02 -0.526487083586E+02
 -0.526490331302E+02 -0.526493476762E+02 -0.526496523192E+02 -0.526499473712E+02 -0.526502331344E+02
 -0.526505099016E+02 -0.526507779564E+02 -0.526510375735E+02 -0.526512890187E+02 -0.526515325499E+02
 -0.526517684164E+02 -0.526519968600E+02 -0.526522181149E+02 -0.526524324079E+02 -0.526526399585E+02
 -0.526528409797E+02 -0.526530356774E+02 -0.526532242513E+02 -0.526534068948E+02 -0.526535837952E+02
 -0.526537551340E+02 -0.526539210870E+02 -0.526540818244E+02 -0.526542375113E+02 -0.526543883074E+02
 -0.526545343676E+02 -0.526546758419E+02 -0.526548128758E+02 -0.526549456099E+02 -0.526550741808E+02
 -0.526551987207E+02 -0.526553193579E+02 -0.526554362163E+02 -0.526555494166E+02 -0.526556590751E+02
 -0.526557653053E+02 -0.526558682165E+02 -0.526559679151E+02 -0.526560645042E+02 -0.526561580836E+02
 -0.526562487504E+02 -0.526563365985E+02 -0.526564217191E+02 -0.526565042006E+02 -0.526565841291E+02
 -0.526566615878E+02 -0.526567366575E+02 -0.526568094171E+02 -0.526568799426E+02 -0.526569483083E+02
 -0.526570145863E+02 -0.526570788465E+02 -0.526571411573E+02 -0.526572015848E+02 -0.526572601936E+02
 -0.526573170466E+02 -0.526573722050E+02 -0.526574257285E+02 -0.526574776754E+02 -0.526575281025E+02
 -0.526575770653E+02 -0.526576246182E+02 -0.526576708143E+02 -0.526577157057E+02 -0.526577593432E+02
 -0.526578017771E+02 -0.526578430564E+02 -0.526578832297E+02 -0.526579223444E+02 -0.526579604476E+02
 -0.526579975858E+02 -0.526580338049E+02 -0.526580691502E+02 -0.526581036671E+02 -0.526581374005E+02
 -0.526581703950E+02 -0.526582026953E+02 -0.526582343460E+02 -0.526582653920E+02 -0.526582958782E+02
 -0.526583258498E+02 -0.526583553525E+02 -0.526583844324E+02 -0.526584131364E+02 -0.526584415119E+02
 -0.526584696073E+02 -0.526584974720E+02 -0.526585251566E+02 -0.526585527127E+02 -0.526585801935E+02
 -0.526586076538E+02 -0.526586351501E+02 -0.526586627407E+02 -0.526586904863E+02 -0.526587184494E+02
 -0.526587466956E+02 -0.526587752926E+02 -0.526588043115E+02 -0.526588338264E+02 -0.526588639148E+02
 -0.526588946579E+02 -0.526589261412E+02 -0.526589584541E+02 -0.526589916908E+02 -0.526590259507E+02
 -0.526590613382E+02 -0.526590979637E+02 -0.526591359436E+02 -0.526591754011E+02 -0.526592164661E+02
 -0.526592592766E+02 -0.526593039783E+02 -0.526593507257E+02 -0.526593996826E+02 -0.526594510228E+02
 -0.526595049304E+02 -0.526595616012E+02 -0.526596212429E+02 -0.526596840762E+02 -0.526597503355E+02
 -0.526598202700E+02 -0.526598941449E+02 -0.526599722417E+02 -0.526600548602E+02 -0.526601423192E+02
 -0.526602349580E+02 -0.526603331376E+02 -0.526604372423E+02 -0.526605476812E+02 -0.526606648899E+02
 -0.526607893319E+02 -0.526609215013E+02 -0.526610619238E+02 -0.526612111597E+02 -0.526613698055E+02
 -0.526615384967E+02 -0.526617179104E+02 -0.526619087677E+02 -0.526621118371E+02 -0.526623279371E+02
 -0.526625579400E+02 -0.526628027752E+02 -0.526630634329E+02 -0.526633409682E+02 -0.526636365054E+02
 -0.526639512427E+02 -0.526642864566E+02 -0.526646435076E+02 -0.526650238452E+02 -0.526654290143E+02
 -0.526658606610E+02 -0.526663205393E+02 -0.526668105185E+02 -0.526673325904E+02 -0.526678888773E+02
 -0.526684816409E+02 -0.526691132910E+02 -0.526697863953E+02 -0.526705036899E+02 -0.526712680899E+02
 -0.526720827012E+02 -0.526729508330E+02 -0.526738760109E+02 -0.526748619909E+02 -0.526759127742E+02
 -0.526770326233E+02 -0.526782260786E+02 -0.526794979766E+02 -0.526808534684E+02 -0.526822980405E+02
 -0.526838375357E+02 -0.526854781764E+02 -0.526872265882E+02 -0.526890898260E+02 -0.526910754010E+02
 -0.526931913093E+02 -0.526954460631E+02 -0.526978487222E+02 -0.527004089290E+02 -0.527031369442E+02
 -0.527060436857E+02 -0.527091407687E+02 -0.527124405486E+02 -0.527159561666E+02 -0.527197015970E+02
 -0.527236916977E+02 -0.527279422631E+02 -0.527324700799E+02 -0.527372929858E+02 -0.527424299309E+02
 -0.527479010423E+02 -0.527537276917E+02 -0.527599325662E+02 -0.527665397419E+02 -0.527735747611E+02
 -0.527810647122E+02 -0.527890383128E+02 -0.527975259956E+02 -0.528065599974E+02 -0.528161744505E+02
 -0.528264054763E+02 -0.528372912809E+02 -0.528488722531E+02 -0.528611910621E+02 -0.528742927567E+02
 -0.528882248644E+02 -0.529030374879E+02 -0.529187834015E+02 -0.529355181416E+02 -0.529533000947E+02
 -0.529721905768E+02 -0.529922539048E+02 -0.530135574577E+02 -0.530361717228E+02 -0.530601703262E+02
 -0.530856300425E+02 -0.531126307812E+02 -0.531412555430E+02 -0.531715903434E+02 -0.532037240961E+02
 -0.532377484497E+02 -0.532737575708E+02 -0.533118478654E+02 -0.533521176285E+02 -0.533946666116E+02
 -0.534395954978E+02 -0.534870052701E+02 -0.535369964604E+02 -0.535896682632E+02 -0.536451174972E+02
 -0.537034373976E+02 -0.537647162188E+02 -0.538290356277E+02 -0.538964688649E+02 -0.539670786521E+02
 -0.540409148208E+02 -0.541180116393E+02 -0.541983848142E+02 -0.542820281429E+02 -0.543689097956E+02
 -0.544589682090E+02 -0.545521075754E+02 -0.546481929190E+02 -0.547470447572E+02 -0.548484333541E+02
 -0.549520725875E+02 -0.550576134633E+02 -0.551646373328E+02 -0.552726488905E+02 -0.553810690545E+02
 -0.554892278681E+02 -0.555963575919E+02 -0.557015862018E+02 -0.558039315480E+02 -0.559022964820E+02
 -0.559954653055E+02 -0.560821019437E+02 -0.561607502876E+02 -0.562298371834E+02 -0.562876785579E+02
 -0.563324891559E+02 -0.563623963054E+02 -0.563754580059E+02 -0.563696854324E+02 -0.563430696236E+02
 -0.562936116560E+02 -0.562193549395E+02 -0.561184173718E+02 -0.559890199267E+02 -0.558295068087E+02
 -0.556383506664E+02 -0.554141346925E+02 -0.551555021581E+02 -0.548610636841E+02 -0.545292542256E+02
 -0.541581360893E+02 -0.537451512894E+02 -0.532868345652E+02 -0.527785051247E+02 -0.522139725982E+02
 -0.515863384417E+02 -0.508098256401E+02 -0.500445409976E+02 -0.492531499516E+02 -0.484366679430E+02
 -0.475984097277E+02 -0.467417115713E+02 -0.458698779748E+02 -0.449861290549E+02 -0.440935111782E+02
 -0.431947989632E+02 -0.422923922939E+02 -0.413882199453E+02 -0.404836774957E+02 -0.395796168257E+02
 -0.386764085822E+02 -0.377740789655E+02 -0.368725116441E+02 -0.359716711011E+02 -0.350718265654E+02
 -0.341737195508E+02 -0.332786612653E+02 -0.323885471353E+02 -0.315057941122E+02 -0.306332144326E+02
 -0.297738426918E+02 -0.289307334733E+02 -0.281067472533E+02 -0.273043443402E+02 -0.265254093624E+02
 -0.257711294412E+02 -0.250419446041E+02 -0.243375781110E+02 -0.236571395512E+02 -0.229992797453E+02
 -0.223623685725E+02 -0.217446670070E+02 -0.211444715819E+02 -0.205602196390E+02 -0.199905534109E+02
 -0.194343478912E+02 -0.188907109816E+02 -0.183589651041E+02 -0.178386183949E+02 -0.173293317259E+02
 -0.168308858269E+02 -0.163431510869E+02 -0.158660613263E+02 -0.153995919584E+02 -0.149437424178E+02
 -0.144985224443E+02 -0.140639416877E+02 -0.136400020814E+02
 core charge-density (pseudized)
  0.337208014235E-07  0.359494900585E-07  0.383254780688E-07  0.408585008232E-07  0.435589371241E-07
  0.464378517340E-07  0.495070407119E-07  0.527790797466E-07  0.562673756843E-07  0.599862214617E-07
  0.639508546698E-07  0.681775199885E-07  0.726835357474E-07  0.774873648859E-07  0.826086906032E-07
  0.880684970081E-07  0.938891550993E-07  0.100094514428E-06  0.106710000820E-06  0.113762720553E-06
  0.121281571425E-06  0.129297361157E-06  0.137842933626E-06  0.146953303440E-06  0.156665799404E-06
  0.167020217475E-06  0.178058983817E-06  0.189827328642E-06  0.202373471532E-06  0.215748819017E-06
  0.230008175208E-06  0.245209966346E-06  0.261416480203E-06  0.278694121298E-06  0.297113682980E-06
  0.316750637497E-06  0.337685445239E-06  0.360003884411E-06  0.383797402500E-06  0.409163490974E-06
  0.436206084742E-06  0.465035988014E-06  0.495771328310E-06  0.528538040472E-06  0.563470382671E-06
  0.600711486515E-06  0.640413943510E-06  0.682740430290E-06  0.727864375164E-06  0.775970668717E-06
  0.827256421382E-06  0.881931771070E-06  0.940220744190E-06  0.100236217356E-05  0.106861067702E-05
  0.113923770067E-05  0.121453263108E-05  0.129480398106E-05  0.138038065369E-05  0.147161329003E-05
  0.156887570573E-05  0.167256642279E-05  0.178311030237E-05  0.190096028566E-05  0.202659924968E-05
  0.216054198585E-05  0.230333730925E-05  0.245557030731E-05  0.261786473711E-05  0.279088558114E-05
  0.297534177193E-05  0.317198909682E-05  0.338163329465E-05  0.360513335712E-05  0.384340504840E-05
  0.409742465725E-05  0.436823299721E-05  0.465693967114E-05  0.496472761754E-05  0.529285795747E-05
  0.564267516166E-05  0.601561255921E-05  0.641319821030E-05  0.683706116709E-05  0.728893814830E-05
  0.777068065503E-05  0.828426255672E-05  0.883178817859E-05  0.941550092345E-05  0.100377924634E-04
  0.107012125389E-04  0.114084794055E-04  0.121624909710E-04  0.129663366686E-04  0.138233101143E-04
  0.147369226019E-04  0.157109174884E-04  0.167492855309E-04  0.178562812373E-04  0.190364402964E-04
  0.202945981612E-04  0.216359098590E-04  0.230658711118E-04  0.245903408512E-04  0.262155652219E-04
  0.279482031711E-04  0.297953537290E-04  0.317645850914E-04  0.338639656248E-04  0.361020969198E-04
  0.384881490283E-04  0.410318980296E-04  0.437437660779E-04  0.466348640963E-04  0.497170372918E-04
  0.530029136769E-04  0.565059557970E-04  0.602405158757E-04  0.642218946031E-04  0.684664038072E-04
  0.729914332661E-04  0.778155219338E-04  0.829584338701E-04  0.884412391870E-04  0.942864003406E-04
  0.100517864124E-03  0.107161159733E-03  0.114243503315E-03  0.121793909411E-03  0.129843309768E-03
  0.138424679993E-03  0.147573174564E-03  0.157326270765E-03  0.167723922116E-03  0.178808721934E-03
  0.190626077692E-03  0.203224396885E-03  0.216655285160E-03  0.230973757528E-03  0.246238463507E-03
  0.262511927120E-03  0.279860802728E-03  0.298356147740E-03  0.318073713302E-03  0.339094254165E-03
  0.361503858976E-03  0.385394302350E-03  0.410863420141E-03  0.438015509454E-03  0.466961754999E-03
  0.497820683549E-03  0.530718648316E-03  0.565790345221E-03  0.603179363163E-03  0.643038770486E-03
  0.685531740043E-03  0.730832215365E-03  0.779125620644E-03  0.830609617368E-03  0.885494910681E-03
  0.944006108705E-03  0.100638263828E-02  0.107287972078E-02  0.114376941198E-02  0.121934171003E-02
  0.129990573610E-02  0.138579099228E-02  0.147734870184E-02  0.157495323715E-02  0.167900364088E-02
  0.178992524659E-02  0.190817140508E-02  0.203422532324E-02  0.216860202276E-02  0.231185042623E-02
  0.246455557887E-02  0.262734101463E-02  0.280087127555E-02  0.298585459454E-02  0.318304575150E-02
  0.339324911408E-02  0.361732187443E-02  0.385617749442E-02  0.411078937220E-02  0.438219474407E-02
  0.467149883599E-02  0.497987928032E-02  0.530859081404E-02  0.565897027551E-02  0.603244191801E-02
  0.643052305913E-02  0.685483008604E-02  0.730708483795E-02  0.778912138782E-02  0.830289324675E-02
  0.885048101557E-02  0.943410050909E-02  0.100561113799E-01  0.107190262698E-01  0.114255205173E-01
  0.121784424525E-01  0.129808243101E-01  0.138358937924E-01  0.147470863169E-01  0.157180579824E-01
  0.167526992885E-01  0.178551496443E-01  0.190298127036E-01  0.202813725622E-01  0.216148108546E-01
  0.230354247857E-01  0.245488461348E-01  0.261610612647E-01  0.278784321700E-01  0.297077185953E-01
  0.316561012503E-01  0.337312061460E-01  0.359411300720E-01  0.382944672266E-01  0.408003370057E-01
  0.434684129491E-01  0.463089528278E-01  0.493328298494E-01  0.525515649374E-01  0.559773600286E-01
  0.596231323079E-01  0.635025492781E-01  0.676300645345E-01  0.720209540812E-01  0.766913529895E-01
  0.816582921564E-01  0.869397348716E-01  0.925546128468E-01  0.985228612961E-01  0.104865452585E+00
  0.111604427882E+00  0.118762926155E+00  0.126365209752E+00  0.134436685674E+00  0.143003921544E+00
  0.152094655088E+00  0.161737795815E+00  0.171963417370E+00  0.182802738848E+00  0.194288093122E+00
  0.206452879976E+00  0.219331501594E+00  0.232959277610E+00  0.247372336645E+00  0.262607480870E+00
  0.278702019780E+00  0.295693568951E+00  0.313619809142E+00  0.332518200646E+00  0.352425647368E+00
  0.373378104623E+00  0.395410124224E+00  0.418554329962E+00  0.442840816235E+00  0.468296462197E+00
  0.494944153563E+00  0.522801904106E+00  0.551881868856E+00  0.582189241297E+00  0.613721027370E+00
  0.646464689924E+00  0.680396658588E+00  0.715480701825E+00  0.751666160422E+00  0.788886044897E+00
  0.827055003481E+00  0.866067172572E+00  0.905793928086E+00  0.946081564102E+00  0.986748934795E+00
  0.102758510714E+01  0.106834708531E+01  0.110875768341E+01  0.114850364097E+01  0.118723409605E+01
  0.122455955285E+01  0.126005150534E+01  0.129324290393E+01  0.132362967839E+01  0.135067355616E+01
  0.137380643828E+01  0.139243661423E+01  0.140595710787E+01  0.141375644633E+01  0.141523212697E+01
  0.140980701762E+01  0.139694885658E+01  0.137619291130E+01  0.134716769950E+01  0.130962346431E+01
  0.126346281362E+01  0.120877257565E+01  0.114585547880E+01  0.107525973119E+01  0.997803957367E+00
  0.914594259031E+00  0.827029432428E+00  0.736789643721E+00  0.645803210017E+00  0.556185663179E+00
  0.470145131146E+00  0.389848445320E+00  0.317243506052E+00  0.253835586164E+00  0.200418727773E+00
  0.156770901622E+00  0.121636726743E+00  0.935894453694E-01  0.713875862082E-01  0.539657004485E-01
  0.404178355548E-01  0.299809051185E-01  0.220183639940E-01  0.160045058308E-01  0.115096245234E-01
  0.818621744465E-02  0.575635315633E-02  0.400027729330E-02  0.274628673328E-02  0.186186368210E-02
  0.124602838679E-02  0.822842279236E-03  0.535972868541E-03  0.344217695750E-03  0.217876823718E-03
  0.135861022795E-03  0.834251407203E-04  0.504221576308E-04  0.299821496076E-04  0.175308970101E-04
  0.100743290420E-04  0.568664140929E-05  0.315113064397E-05  0.171307756421E-05  0.913068712148E-06
  0.476813945833E-06  0.243784106641E-06  0.121942369105E-06  0.596306700054E-07  0.284849696915E-07
  0.132816146164E-07  0.603985046624E-08  0.267661505285E-08  0.115496002330E-08  0.484839755984E-09
  0.197833529739E-09  0.783939393057E-10  0.301401837878E-10  0.112325531106E-10  0.405374220406E-11
  0.141527670496E-11  0.477510029960E-12  0.155529531843E-12  0.488483628986E-13  0.147772973250E-13
  0.430062665686E-14  0.120261393422E-14  0.322720080892E-15
 pseudo wavefunction
  0.148511989937E-03  0.153341229327E-03  0.158327503530E-03  0.163475918928E-03  0.168791747948E-03
  0.174280434461E-03  0.179947599362E-03  0.185799046323E-03  0.191840767737E-03  0.198078950852E-03
  0.204519984112E-03  0.211170463699E-03  0.218037200282E-03  0.225127226000E-03  0.232447801657E-03
  0.240006424160E-03  0.247810834199E-03  0.255869024169E-03  0.264189246359E-03  0.272780021403E-03
  0.281650147002E-03  0.290808706937E-03  0.300265080372E-03  0.310028951457E-03  0.320110319246E-03
  0.330519507936E-03  0.341267177443E-03  0.352364334316E-03  0.363822343008E-03  0.375652937516E-03
  0.387868233397E-03  0.400480740176E-03  0.413503374154E-03  0.426949471640E-03  0.440832802605E-03
  0.455167584782E-03  0.469968498232E-03  0.485250700373E-03  0.501029841504E-03  0.517322080829E-03
  0.534144103012E-03  0.551513135257E-03  0.569446964953E-03  0.587963957890E-03  0.607083077064E-03
  0.626823902102E-03  0.647206649307E-03  0.668252192365E-03  0.689982083719E-03  0.712418576643E-03
  0.735584648028E-03  0.759504021914E-03  0.784201193783E-03  0.809701455647E-03  0.836030921946E-03
  0.863216556293E-03  0.891286199086E-03  0.920268596017E-03  0.950193427511E-03  0.981091339121E-03
  0.101299397291E-02  0.104593399985E-02  0.107994515329E-02  0.111506226348E-02  0.115132129328E-02
  0.118875937494E-02  0.122741484814E-02  0.126732729928E-02  0.130853760198E-02  0.135108795895E-02
  0.139502194522E-02  0.144038455274E-02  0.148722223648E-02  0.153558296196E-02  0.158551625442E-02
  0.163707324949E-02  0.169030674558E-02  0.174527125793E-02  0.180202307444E-02  0.186062031332E-02
  0.192112298258E-02  0.198359304150E-02  0.204809446406E-02  0.211469330444E-02  0.218345776468E-02
  0.225445826451E-02  0.232776751342E-02  0.240346058518E-02  0.248161499463E-02  0.256231077713E-02
  0.264563057042E-02  0.273165969930E-02  0.282048626299E-02  0.291220122528E-02  0.300689850770E-02
  0.310467508569E-02  0.320563108786E-02  0.330986989851E-02  0.341749826347E-02  0.352862639939E-02
  0.364336810657E-02  0.376184088546E-02  0.388416605693E-02  0.401046888648E-02  0.414087871245E-02
  0.427552907842E-02  0.441455786992E-02  0.455810745551E-02  0.470632483256E-02  0.485936177763E-02
  0.501737500185E-02  0.518052631128E-02  0.534898277249E-02  0.552291688349E-02  0.570250675029E-02
  0.588793626909E-02  0.607939531443E-02  0.627707993346E-02  0.648119254648E-02  0.669194215397E-02
  0.690954455041E-02  0.713422254495E-02  0.736620618927E-02  0.760573301283E-02  0.785304826572E-02
  0.810840516939E-02  0.837206517552E-02  0.864429823323E-02  0.892538306497E-02  0.921560745135E-02
  0.951526852511E-02  0.982467307470E-02  0.101441378576E-01  0.104739899238E-01  0.108145669497E-01
  0.111662175829E-01  0.115293017977E-01  0.119041912628E-01  0.122912697202E-01  0.126909333767E-01
  0.131035913076E-01  0.135296658740E-01  0.139695931526E-01  0.144238233806E-01  0.148928214136E-01
  0.153770671988E-01  0.158770562636E-01  0.163933002192E-01  0.169263272809E-01  0.174766828045E-01
  0.180449298403E-01  0.186316497045E-01  0.192374425688E-01  0.198629280687E-01  0.205087459311E-01
  0.211755566220E-01  0.218640420146E-01  0.225749060778E-01  0.233088755878E-01  0.240667008605E-01
  0.248491565080E-01  0.256570422182E-01  0.264911835592E-01  0.273524328077E-01  0.282416698043E-01
  0.291598028346E-01  0.301077695373E-01  0.310865378404E-01  0.320971069265E-01  0.331405082260E-01
  0.342178064419E-01  0.353301006050E-01  0.364785251598E-01  0.376642510843E-01  0.388884870416E-01
  0.401524805661E-01  0.414575192838E-01  0.428049321687E-01  0.441960908339E-01  0.456324108609E-01
  0.471153531653E-01  0.486464254009E-01  0.502271834021E-01  0.518592326657E-01  0.535442298727E-01
  0.552838844490E-01  0.570799601678E-01  0.589342767921E-01  0.608487117580E-01  0.628252018994E-01
  0.648657452131E-01  0.669724026647E-01  0.691473000357E-01  0.713926298089E-01  0.737106530945E-01
  0.761037015934E-01  0.785741795975E-01  0.811245660263E-01  0.837574164960E-01  0.864753654212E-01
  0.892811281448E-01  0.921775030945E-01  0.951673739611E-01  0.982537118964E-01  0.101439577724E+00
  0.104728124159E+00  0.108122598032E+00  0.111626342504E+00  0.115242799278E+00  0.118975510779E+00
  0.122828122317E+00  0.126804384192E+00  0.130908153762E+00  0.135143397434E+00  0.139514192570E+00
  0.144024729302E+00  0.148679312220E+00  0.153482361920E+00  0.158438416393E+00  0.163552132214E+00
  0.168828285524E+00  0.174271772745E+00  0.179887611021E+00  0.185680938322E+00  0.191657013184E+00
  0.197821214027E+00  0.204179038001E+00  0.210736099309E+00  0.217498126928E+00  0.224470961673E+00
  0.231660552521E+00  0.239072952105E+00  0.246714311299E+00  0.254590872779E+00  0.262708963460E+00
  0.271074985683E+00  0.279695407023E+00  0.288576748572E+00  0.297725571547E+00  0.307148462050E+00
  0.316852013801E+00  0.326842808634E+00  0.337127394563E+00  0.347712261166E+00  0.358603812051E+00
  0.369808334133E+00  0.381331963432E+00  0.393180647097E+00  0.405360101314E+00  0.417875764768E+00
  0.430732747276E+00  0.443935773219E+00  0.457489119360E+00  0.471396546619E+00  0.485661225381E+00
  0.500285653867E+00  0.515271569121E+00  0.530619850129E+00  0.546330412622E+00  0.562402095088E+00
  0.578832535563E+00  0.595618038769E+00  0.612753433249E+00  0.630231918160E+00  0.648044899489E+00
  0.666181815542E+00  0.684629951680E+00  0.703374244429E+00  0.722397075256E+00  0.741678054562E+00
  0.761193796660E+00  0.780917686866E+00  0.800819642149E+00  0.820865867252E+00  0.841018608652E+00
  0.861235909297E+00  0.881471367664E+00  0.901673905388E+00  0.921787548477E+00  0.941751227926E+00
  0.961498606464E+00  0.980957939053E+00  0.100005197574E+01  0.101869791634E+01  0.103680742736E+01
  0.105428673236E+01  0.107103678736E+01  0.108695355355E+01  0.110192837918E+01  0.111584850215E+01
  0.112859768342E+01  0.114005697941E+01  0.115010565825E+01  0.115862226035E+01  0.116548579747E+01
  0.117057707694E+01  0.117378012729E+01  0.117498368929E+01  0.117408272193E+01  0.117097985480E+01
  0.116558669914E+01  0.115782490764E+01  0.114762684963E+01  0.113493574516E+01  0.111970507906E+01
  0.110189709847E+01  0.108148018633E+01  0.105842490468E+01  0.103269851991E+01  0.100425786446E+01
  0.973040463670E+00  0.938951936762E+00  0.902058776822E+00  0.862765368793E+00  0.821523145341E+00
  0.778780363654E+00  0.734976457704E+00  0.690536809050E+00  0.645868009398E+00  0.601353660223E+00
  0.557350731228E+00  0.514186480637E+00  0.472155926362E+00  0.431519854863E+00  0.392503361166E+00
  0.355294929789E+00  0.320046084299E+00  0.286871645491E+00  0.255850636639E+00  0.227027852585E+00
  0.200416072713E+00  0.175998850794E+00  0.153733770182E+00  0.133556019771E+00  0.115382130141E+00
  0.991137116436E-01  0.846410536493E-01  0.718464725903E-01  0.606073304641E-01  0.507986808296E-01
  0.422955319263E-01  0.349747430607E-01  0.287165882710E-01  0.234060293326E-01  0.189337391377E-01
  0.151969089595E-01  0.120998628037E-01  0.955449259823E-02  0.748052187244E-02  0.580560374160E-02
  0.446526091809E-02  0.340267975035E-02  0.256837536045E-02  0.191974947388E-02  0.142056563876E-02
  0.104036783342E-02  0.753867969395E-03  0.540325782454E-03  0.382941468406E-03  0.268277602456E-03
  0.185722788088E-03  0.127005455179E-03  0.857625253647E-04
 ae wavefunction
  0.404846911485E-02  0.416930989184E-02  0.429372824662E-02  0.442182833693E-02  0.455371723900E-02
  0.468950502228E-02  0.482930482558E-02  0.497323293462E-02  0.512140886107E-02  0.527395542293E-02
  0.543099882636E-02  0.559266874879E-02  0.575909842347E-02  0.593042472521E-02  0.610678825743E-02
  0.628833344042E-02  0.647520860069E-02  0.666756606148E-02  0.686556223421E-02  0.706935771094E-02
  0.727911735763E-02  0.749501040818E-02  0.771721055908E-02  0.794589606470E-02  0.818124983282E-02
  0.842345952061E-02  0.867271763061E-02  0.892922160675E-02  0.919317393006E-02  0.946478221408E-02
  0.974425929957E-02  0.100318233484E-01  0.103276979365E-01  0.106321121450E-01  0.109453006504E-01
  0.112675038124E-01  0.115989677592E-01  0.119399444708E-01  0.122906918591E-01  0.126514738437E-01
  0.130225604256E-01  0.134042277546E-01  0.137967581929E-01  0.142004403737E-01  0.146155692521E-01
  0.150424461515E-01  0.154813788006E-01  0.159326813640E-01  0.163966744630E-01  0.168736851869E-01
  0.173640470938E-01  0.178681002004E-01  0.183861909582E-01  0.189186722171E-01  0.194659031737E-01
  0.200282493042E-01  0.206060822793E-01  0.211997798613E-01  0.218097257807E-01  0.224363095910E-01
  0.230799265010E-01  0.237409771812E-01  0.244198675440E-01  0.251170084949E-01  0.258328156531E-01
  0.265677090386E-01  0.273221127244E-01  0.280964544509E-01  0.288911651997E-01  0.297066787250E-01
  0.305434310382E-01  0.314018598445E-01  0.322824039273E-01  0.331855024766E-01  0.341115943593E-01
  0.350611173271E-01  0.360345071572E-01  0.370321967235E-01  0.380546149929E-01  0.391021859429E-01
  0.401753273949E-01  0.412744497603E-01  0.423999546922E-01  0.435522336393E-01  0.447316662954E-01
  0.459386189394E-01  0.471734426601E-01  0.484364714591E-01  0.497280202268E-01  0.510483825837E-01
  0.523978285808E-01  0.537766022533E-01  0.551849190192E-01  0.566229629164E-01  0.580908836710E-01
  0.595887935893E-01  0.611167642661E-01  0.626748231013E-01  0.642629496183E-01  0.658810715748E-01
  0.675290608604E-01  0.692067291720E-01  0.709138234599E-01  0.726500211383E-01  0.744149250518E-01
  0.762080581929E-01  0.780288581625E-01  0.798766713690E-01  0.817507469606E-01  0.836502304859E-01
  0.855741572796E-01  0.875214455706E-01  0.894908893107E-01  0.914811507244E-01  0.934907525795E-01
  0.955180701829E-01  0.975613231057E-01  0.996185666434E-01  0.101687683022E+00  0.103766372359E+00
  0.105852143398E+00  0.107942304030E+00  0.110033951622E+00  0.112123963187E+00  0.114208985408E+00
  0.116285424569E+00  0.118349436417E+00  0.120396915998E+00  0.122423487539E+00  0.124424494397E+00
  0.126394989172E+00  0.128329724032E+00  0.130223141339E+00  0.132069364657E+00  0.133862190247E+00
  0.135595079142E+00  0.137261149922E+00  0.138853172328E+00  0.140363561827E+00  0.141784375297E+00
  0.143107307996E+00  0.144323691961E+00  0.145424496067E+00  0.146400327903E+00  0.147241437714E+00
  0.147937724619E+00  0.148478745349E+00  0.148853725767E+00  0.149051575442E+00  0.149060905548E+00
  0.148870050396E+00  0.148467092907E+00  0.147839894334E+00  0.146976128575E+00  0.145863321403E+00
  0.144488894959E+00  0.142840217844E+00  0.140904661170E+00  0.138669660890E+00  0.136122786752E+00
  0.133251818194E+00  0.130044827477E+00  0.126490270338E+00  0.122577084411E+00  0.118294795618E+00
  0.113633632706E+00  0.108584650024E+00  0.103139858598E+00  0.972923654578E-01  0.910365211118E-01
  0.843680749406E-01  0.772843381846E-01  0.697843540667E-01  0.618690744498E-01  0.535415422718E-01
  0.448070788285E-01  0.356734747831E-01  0.261511835877E-01  0.162535157860E-01  0.599683246235E-02
 -0.459926410957E-02 -0.155117447607E-01 -0.267139749952E-01 -0.381755463485E-01 -0.498621202522E-01
 -0.617352873580E-01 -0.737524455819E-01 -0.858667005060E-01 -0.980267922154E-01 -0.110177053102E+00
 -0.122257401570E+00 -0.134203376882E+00 -0.145946220547E+00 -0.157413009649E+00 -0.168526847387E+00
 -0.179207115785E+00 -0.189369795173E+00 -0.198927854577E+00 -0.207791716695E+00 -0.215869800660E+00
 -0.223069145240E+00 -0.229296114445E+00 -0.234457186721E+00 -0.238459827941E+00 -0.241213447272E+00
 -0.242630433732E+00 -0.242627269827E+00 -0.241125717046E+00 -0.238054066280E+00 -0.233348444302E+00
 -0.226954165420E+00 -0.218827115259E+00 -0.208935151394E+00 -0.197259503235E+00 -0.183796151313E+00
 -0.168557163860E+00 -0.151571966462E+00 -0.132888518673E+00 -0.112574369784E+00 -0.907175646314E-01
 -0.674273694169E-01 -0.428347870798E-01 -0.170928321556E-01  0.962346358193E-02  0.371173405249E-01
  0.651709169703E-01  0.935461265671E-01  0.121985996913E+00  0.150216275117E+00  0.177947407181E+00
  0.204876884309E+00  0.230691977580E+00  0.255072884764E+00  0.277696299184E+00  0.298239378420E+00
  0.316384055081E+00  0.331821614172E+00  0.344257465781E+00  0.353416051752E+00  0.359045825663E+00
  0.360924235362E+00  0.358862624726E+00  0.352710963096E+00  0.342362308839E+00  0.327756915523E+00
  0.308885892390E+00  0.285794333290E+00  0.258583829830E+00  0.227414285659E+00  0.192504950513E+00
  0.154134596074E+00  0.112640761997E+00  0.684180110398E-01  0.219151480692E-01 -0.263686210310E-01
 -0.758885896199E-01 -0.126060484778E+00 -0.176267394065E+00 -0.225867635412E+00 -0.274203510310E+00
 -0.320610819969E+00 -0.364428837656E+00 -0.405010093215E+00 -0.441729054208E+00 -0.473989138053E+00
 -0.501228895018E+00 -0.522929850219E+00 -0.538627876707E+00 -0.547926301258E+00 -0.550506800912E+00
 -0.546136468553E+00 -0.534672082306E+00 -0.516062792686E+00 -0.490351608754E+00 -0.457675534566E+00
 -0.418264081946E+00 -0.372435987700E+00 -0.320594147927E+00 -0.263218942273E+00 -0.200860209677E+00
 -0.134128163075E+00 -0.636835184936E-01  0.977291111470E-02  0.855109345600E-01  0.162781815146E+00
  0.240829038084E+00  0.318898847250E+00  0.396250396046E+00  0.472165364685E+00  0.545956906042E+00
  0.616977796556E+00  0.684627689071E+00  0.748359391195E+00  0.807684111886E+00  0.862175621884E+00
  0.911473248704E+00  0.955283576899E+00  0.993380697079E+00  0.102560490969E+01  0.105186000955E+01
  0.107210962101E+01  0.108637334170E+01  0.109472344178E+01  0.109728247314E+01  0.109422157178E+01
  0.108575886133E+01  0.107215732413E+01  0.105372176661E+01  0.103079480115E+01  0.100375196886E+01
  0.972996216079E+00  0.938951936762E+00  0.902058776822E+00  0.862765368793E+00  0.821523145341E+00
  0.778780363654E+00  0.734976457704E+00  0.690536809050E+00  0.645868009398E+00  0.601353660223E+00
  0.557350731228E+00  0.514186480637E+00  0.472155926362E+00  0.431519854863E+00  0.392503361166E+00
  0.355294929789E+00  0.320046084299E+00  0.286871645491E+00  0.255850636639E+00  0.227027852585E+00
  0.200416072713E+00  0.175998850794E+00  0.153733770182E+00  0.133556019771E+00  0.115382130141E+00
  0.991137116436E-01  0.846410536493E-01  0.718464725903E-01  0.606073304641E-01  0.507986808296E-01
  0.422955319263E-01  0.349747430607E-01  0.287165882710E-01  0.234060293326E-01  0.189337391377E-01
  0.151969089595E-01  0.120998628037E-01  0.955449259823E-02  0.748052187244E-02  0.580560374160E-02
  0.446526091809E-02  0.340267975035E-02  0.256837536045E-02  0.191974947388E-02  0.142056563876E-02
  0.104036783342E-02  0.753867969395E-03  0.540325782454E-03  0.382941468406E-03  0.268277602456E-03
  0.185722788088E-03  0.127005455179E-03  0.857625253647E-04
 pseudo wavefunction
  0.160464492527E-03  0.165682397481E-03  0.171069975683E-03  0.176632744484E-03  0.182376400645E-03
  0.188306826171E-03  0.194430094335E-03  0.200752475900E-03  0.207280445534E-03  0.214020688448E-03
  0.220980107241E-03  0.228165828962E-03  0.235585212419E-03  0.243245855707E-03  0.251155603993E-03
  0.259322557550E-03  0.267755080048E-03  0.276461807128E-03  0.285451655236E-03  0.294733830760E-03
  0.304317839456E-03  0.314213496186E-03  0.324430934962E-03  0.334980619333E-03  0.345873353093E-03
  0.357120291349E-03  0.368732951947E-03  0.380723227260E-03  0.393103396372E-03  0.405886137654E-03
  0.419084541744E-03  0.432712124953E-03  0.446782843112E-03  0.461311105857E-03  0.476311791389E-03
  0.491800261712E-03  0.507792378362E-03  0.524304518652E-03  0.541353592444E-03  0.558957059466E-03
  0.577132947190E-03  0.595899869295E-03  0.615277044732E-03  0.635284317401E-03  0.655942176473E-03
  0.677271777377E-03  0.699294963459E-03  0.722034288357E-03  0.745513039092E-03  0.769755259920E-03
  0.794785776952E-03  0.820630223579E-03  0.847315066725E-03  0.874867633946E-03  0.903316141418E-03
  0.932689722833E-03  0.963018459232E-03  0.994333409813E-03  0.102666664373E-02  0.106005127295E-02
  0.109452148613E-02  0.113011258368E-02  0.116686101386E-02  0.120480441012E-02  0.124398162967E-02
  0.128443279323E-02  0.132619932613E-02  0.136932400075E-02  0.141385098028E-02  0.145982586401E-02
  0.150729573394E-02  0.155630920306E-02  0.160691646511E-02  0.165916934598E-02  0.171312135678E-02
  0.176882774862E-02  0.182634556923E-02  0.188573372133E-02  0.194705302298E-02  0.201036626984E-02
  0.207573829948E-02  0.214323605777E-02  0.221292866744E-02  0.228488749882E-02  0.235918624299E-02
  0.243590098718E-02  0.251511029268E-02  0.259689527533E-02  0.268133968853E-02  0.276853000900E-02
  0.285855552536E-02  0.295150842950E-02  0.304748391101E-02  0.314658025465E-02  0.324889894093E-02
  0.335454475006E-02  0.346362586919E-02  0.357625400320E-02  0.369254448904E-02  0.381261641383E-02
  0.393659273673E-02  0.406460041487E-02  0.419677053327E-02  0.433323843908E-02  0.447414388005E-02
  0.461963114765E-02  0.476984922471E-02  0.492495193795E-02  0.508509811540E-02  0.525045174895E-02
  0.542118216221E-02  0.559746418376E-02  0.577947832607E-02  0.596741097025E-02  0.616145455668E-02
  0.636180778201E-02  0.656867580238E-02  0.678227044330E-02  0.700281041641E-02  0.723052154314E-02
  0.746563698570E-02  0.770839748557E-02  0.795905160967E-02  0.821785600455E-02  0.848507565878E-02
  0.876098417392E-02  0.904586404412E-02  0.934000694494E-02  0.964371403141E-02  0.995729624574E-02
  0.102810746351E-01  0.106153806794E-01  0.109605566301E-01  0.113169558595E-01  0.116849432218E-01
  0.120648954251E-01  0.124572014163E-01  0.128622627779E-01  0.132804941374E-01  0.137123235903E-01
  0.141581931368E-01  0.146185591318E-01  0.150938927505E-01  0.155846804678E-01  0.160914245541E-01
  0.166146435863E-01  0.171548729753E-01  0.177126655108E-01  0.182885919233E-01  0.188832414635E-01
  0.194972225012E-01  0.201311631423E-01  0.207857118666E-01  0.214615381843E-01  0.221593333149E-01
  0.228798108864E-01  0.236237076577E-01  0.243917842626E-01  0.251848259782E-01  0.260036435172E-01
  0.268490738446E-01  0.277219810206E-01  0.286232570693E-01  0.295538228747E-01  0.305146291045E-01
  0.315066571620E-01  0.325309201681E-01  0.335884639727E-01  0.346803681974E-01  0.358077473097E-01
  0.369717517303E-01  0.381735689727E-01  0.394144248181E-01  0.406955845244E-01  0.420183540717E-01
  0.433840814438E-01  0.447941579476E-01  0.462500195705E-01  0.477531483768E-01  0.493050739435E-01
  0.509073748374E-01  0.525616801322E-01  0.542696709684E-01  0.560330821550E-01  0.578537038140E-01
  0.597333830689E-01  0.616740257763E-01  0.636775983021E-01  0.657461293417E-01  0.678817117847E-01
  0.700865046241E-01  0.723627349092E-01  0.747126997431E-01  0.771387683226E-01  0.796433840209E-01
  0.822290665123E-01  0.848984139364E-01  0.876541051011E-01  0.904989017229E-01  0.934356507006E-01
  0.964672864217E-01  0.995968330969E-01  0.102827407119E+00  0.106162219445E+00  0.109604577987E+00
  0.113157890023E+00  0.116825664604E+00  0.120611514959E+00  0.124519160888E+00  0.128552431136E+00
  0.132715265736E+00  0.137011718299E+00  0.141445958261E+00  0.146022273049E+00  0.150745070164E+00
  0.155618879152E+00  0.160648353455E+00  0.165838272106E+00  0.171193541254E+00  0.176719195480E+00
  0.182420398887E+00  0.188302445911E+00  0.194370761832E+00  0.200630902935E+00  0.207088556271E+00
  0.213749538978E+00  0.220619797093E+00  0.227705403798E+00  0.235012557042E+00  0.242547576441E+00
  0.250316899397E+00  0.258327076333E+00  0.266584764949E+00  0.275096723392E+00  0.283869802220E+00
  0.292910935035E+00  0.302227127639E+00  0.311825445571E+00  0.321712999849E+00  0.331896930741E+00
  0.342384389376E+00  0.353182516977E+00  0.364298421487E+00  0.375739151357E+00  0.387511666215E+00
  0.399622804146E+00  0.412079245275E+00  0.424887471326E+00  0.438053720829E+00  0.451583939588E+00
  0.465483726048E+00  0.479758271140E+00  0.494412292184E+00  0.509449960420E+00  0.524874821699E+00
  0.540689709869E+00  0.556896652394E+00  0.573496767712E+00  0.590490153881E+00  0.607875768039E+00
  0.625651296251E+00  0.643813013350E+00  0.662355632414E+00  0.681272143612E+00  0.700553642226E+00
  0.720189145773E+00  0.740165400297E+00  0.760466676082E+00  0.781074553239E+00  0.801967697879E+00
  0.823121629901E+00  0.844508483770E+00  0.866096764085E+00  0.887851098216E+00  0.909731988857E+00
  0.931695569951E+00  0.953693370173E+00  0.975672088924E+00  0.997573390662E+00  0.101933372433E+01
  0.104088417565E+01  0.106215036101E+01  0.108305237292E+01  0.110350478782E+01  0.112341674813E+01
  0.114269213132E+01  0.116122981929E+01  0.117892408179E+01  0.119566508736E+01  0.121133955469E+01
  0.122583155569E+01  0.123902347905E+01  0.125079715925E+01  0.126103517079E+01  0.126962227987E+01
  0.127644703683E+01  0.128140348026E+01  0.128439290928E+01  0.128532566252E+01  0.128412282159E+01
  0.128071773225E+01  0.127505721019E+01  0.126710226866E+01  0.125682817572E+01  0.124422361942E+01
  0.122928873412E+01  0.121203172269E+01  0.119246380397E+01  0.117059222697E+01  0.114641113259E+01
  0.111989011767E+01  0.109096226342E+01  0.105973063883E+01  0.102670740856E+01  0.992467204690E+00
  0.000000000000E+00  0.000000000000E+00  0.000000000000E+00  0.000000000000E+00  0.000000000000E+00
  0.000000000000E+00  0.000000000000E+00  0.000000000000E+00  0.000000000000E+00  0.000000000000E+00
  0.000000000000E+00  0.000000000000E+00  0.000000000000E+00  0.000000000000E+00  0.000000000000E+00
  0.000000000000E+00  0.000000000000E+00  0.000000000000E+00  0.000000000000E+00  0.000000000000E+00
  0.000000000000E+00  0.000000000000E+00  0.000000000000E+00  0.000000000000E+00  0.000000000000E+00
  0.000000000000E+00  0.000000000000E+00  0.000000000000E+00  0.000000000000E+00  0.000000000000E+00
  0.000000000000E+00  0.000000000000E+00  0.000000000000E+00  0.000000000000E+00  0.000000000000E+00
  0.000000000000E+00  0.000000000000E+00  0.000000000000E+00  0.000000000000E+00  0.000000000000E+00
  0.000000000000E+00  0.000000000000E+00  0.000000000000E+00  0.000000000000E+00  0.000000000000E+00
  0.000000000000E+00  0.000000000000E+00  0.000000000000E+00
 ae wavefunction
  0.440125385739E-02  0.453262473504E-02  0.466788494182E-02  0.480714771179E-02  0.495052945188E-02
  0.509814982304E-02  0.525013182301E-02  0.540660187073E-02  0.556768989216E-02  0.573352940772E-02
  0.590425762122E-02  0.608001551026E-02  0.626094791808E-02  0.644720364684E-02  0.663893555221E-02
  0.683630063933E-02  0.703946015997E-02  0.724857971087E-02  0.746382933325E-02  0.768538361324E-02
  0.791342178330E-02  0.814812782449E-02  0.838969056929E-02  0.863830380525E-02  0.889416637887E-02
  0.915748229987E-02  0.942846084558E-02  0.970731666531E-02  0.999426988443E-02  0.102895462081E-01
  0.105933770240E-01  0.109059995051E-01  0.112276567095E-01  0.115585976810E-01  0.118990775457E-01
  0.122493576086E-01  0.126097054456E-01  0.129803949946E-01  0.133617066419E-01  0.137539273057E-01
  0.141573505147E-01  0.145722764827E-01  0.149990121776E-01  0.154378713839E-01  0.158891747597E-01
  0.163532498858E-01  0.168304313070E-01  0.173210605644E-01  0.178254862185E-01  0.183440638616E-01
  0.188771561188E-01  0.194251326359E-01  0.199883700547E-01  0.205672519730E-01  0.211621688885E-01
  0.217735181252E-01  0.224017037420E-01  0.230471364201E-01  0.237102333287E-01  0.243914179678E-01
  0.250911199855E-01  0.258097749674E-01  0.265478241980E-01  0.273057143901E-01  0.280838973808E-01
  0.288828297916E-01  0.297029726504E-01  0.305447909720E-01  0.314087532950E-01  0.322953311721E-01
  0.332049986102E-01  0.341382314577E-01  0.350955067349E-01  0.360773019046E-01  0.370840940785E-01
  0.381163591557E-01  0.391745708890E-01  0.402591998753E-01  0.413707124639E-01  0.425095695800E-01
  0.436762254568E-01  0.448711262716E-01  0.460947086807E-01  0.473473982468E-01  0.486296077537E-01
  0.499417354013E-01  0.512841628764E-01  0.526572532897E-01  0.540613489757E-01  0.554967691456E-01
  0.569638073880E-01  0.584627290087E-01  0.599937682033E-01  0.615571250529E-01  0.631529623377E-01
  0.647814021576E-01  0.664425223538E-01  0.681363527225E-01  0.698628710113E-01  0.716219986927E-01
  0.734135965029E-01  0.752374597410E-01  0.770933133183E-01  0.789808065518E-01  0.808995076914E-01
  0.828488981778E-01  0.848283666199E-01  0.868372024890E-01  0.888745895220E-01  0.909395988298E-01
  0.930311817067E-01  0.951481621382E-01  0.972892290049E-01  0.994529279825E-01  0.101637653140E+00
  0.103841638238E+00  0.106062947732E+00  0.108299467488E+00  0.110548895227E+00  0.112808730691E+00
  0.115076265578E+00  0.117348573229E+00  0.119622498126E+00  0.121894645191E+00  0.124161368954E+00
  0.126418762599E+00  0.128662646943E+00  0.130888559394E+00  0.133091742939E+00  0.135267135229E+00
  0.137409357824E+00  0.139512705679E+00  0.141571136948E+00  0.143578263217E+00  0.145527340250E+00
  0.147411259375E+00  0.149222539637E+00  0.150953320844E+00  0.152595357667E+00  0.154140014950E+00
  0.155578264405E+00  0.156900682885E+00  0.158097452434E+00  0.159158362340E+00  0.160072813412E+00
  0.160829824738E+00  0.161418043192E+00  0.161825755952E+00  0.162040906343E+00  0.162051113297E+00
  0.161843694760E+00  0.161405695383E+00  0.160723918832E+00  0.159784965094E+00  0.158575273116E+00
  0.157081169177E+00  0.155288921346E+00  0.153184800408E+00  0.150755147626E+00  0.147986449700E+00
  0.144865421268E+00  0.141379095281E+00  0.137514921552E+00  0.133260873742E+00  0.128605565019E+00
  0.123538372568E+00  0.118049571057E+00  0.112130475124E+00  0.105773590838E+00  0.989727760106E-01
  0.917234091194E-01  0.840225664852E-01  0.758692072050E-01  0.672643651881E-01  0.582113474722E-01
  0.487159378085E-01  0.387866042979E-01  0.284347096471E-01  0.176747223832E-01  0.652442713878E-02
 -0.499486810785E-02 -0.168581301661E-01 -0.290364066749E-01 -0.414966427877E-01 -0.542015114516E-01
 -0.671092604942E-01 -0.801735800577E-01 -0.933434943385E-01 -0.106563282061E+00 -0.119772430614E+00
 -0.132905629210E+00 -0.145892806769E+00 -0.158659220384E+00 -0.171125600254E+00 -0.183208356797E+00
 -0.194819855341E+00 -0.205868763392E+00 -0.216260474970E+00 -0.225897616021E+00 -0.234680634368E+00
 -0.242508477088E+00 -0.249279357455E+00 -0.254891612731E+00 -0.259244653020E+00 -0.262240000197E+00
 -0.263782414527E+00 -0.263781105040E+00 -0.262151018002E+00 -0.258814195926E+00 -0.253701197496E+00
 -0.246752566567E+00 -0.237920336063E+00 -0.227169550158E+00 -0.214479785631E+00 -0.199846650793E+00
 -0.183283237982E+00 -0.164821503291E+00 -0.144513545156E+00 -0.122432751586E+00 -0.986747844066E-01
 -0.733583678625E-01 -0.466258485264E-01 -0.186434938123E-01  0.103985020663E-01  0.402863327534E-01
  0.707832381398E-01  0.101630523167E+00  0.132548947277E+00  0.163240490796E+00  0.193390505667E+00
  0.222670264725E+00  0.250739932804E+00  0.277251985456E+00  0.301855086053E+00  0.324198397090E+00
  0.343936262885E+00  0.360733181629E+00  0.374268989275E+00  0.384244188618E+00  0.390385357589E+00
  0.392450559910E+00  0.390234667552E+00  0.383574495541E+00  0.372353647505E+00  0.356506972579E+00
  0.336024537783E+00  0.310955022732E+00  0.281408445266E+00  0.247558127900E+00  0.209641816871E+00
  0.167961869308E+00  0.122884430919E+00  0.748375380928E-01  0.243080955543E-01 -0.281622961952E-01
 -0.819826623697E-01 -0.136519096905E+00 -0.191102281115E+00 -0.245036024332E+00 -0.297606761282E+00
 -0.348093875383E+00 -0.395780514714E+00 -0.439964200874E+00 -0.479966235468E+00 -0.515139288124E+00
 -0.544874077024E+00 -0.568607845901E+00 -0.585836675405E+00 -0.596129678489E+00 -0.599140795957E+00
 -0.594616427376E+00 -0.582400021086E+00 -0.562434943833E+00 -0.534766046096E+00 -0.499539762826E+00
 -0.457002452505E+00 -0.407496787975E+00 -0.351456212792E+00 -0.289397651058E+00 -0.221912755293E+00
 -0.149658005199E+00 -0.733439571615E-01  0.627608286735E-02  0.884177206493E-01  0.172277253071E+00
  0.257043370667E+00  0.341908603714E+00  0.426080343591E+00  0.508791279594E+00  0.589309102329E+00
  0.666945340631E+00  0.741063221348E+00  0.811084470619E+00  0.876494996390E+00  0.936849395473E+00
  0.991774201611E+00  0.104096973632E+01  0.108421039363E+01  0.112134325605E+01  0.115228517634E+01
  0.117701883808E+01  0.119558862334E+01  0.120809711714E+01  0.121470265732E+01  0.121561771860E+01
  0.121110750809E+01  0.120148809842E+01  0.118712370611E+01  0.116842304721E+01  0.114583492773E+01
  0.111984333003E+01  0.109096226342E+01  0.105973063883E+01  0.102670740856E+01  0.992467204690E+00
  0.000000000000E+00  0.000000000000E+00  0.000000000000E+00  0.000000000000E+00  0.000000000000E+00
  0.000000000000E+00  0.000000000000E+00  0.000000000000E+00  0.000000000000E+00  0.000000000000E+00
  0.000000000000E+00  0.000000000000E+00  0.000000000000E+00  0.000000000000E+00  0.000000000000E+00
  0.000000000000E+00  0.000000000000E+00  0.000000000000E+00  0.000000000000E+00  0.000000000000E+00
  0.000000000000E+00  0.000000000000E+00  0.000000000000E+00  0.000000000000E+00  0.000000000000E+00
  0.000000000000E+00  0.000000000000E+00  0.000000000000E+00  0.000000000000E+00  0.000000000000E+00
  0.000000000000E+00  0.000000000000E+00  0.000000000000E+00  0.000000000000E+00  0.000000000000E+00
  0.000000000000E+00  0.000000000000E+00  0.000000000000E+00  0.000000000000E+00  0.000000000000E+00
  0.000000000000E+00  0.000000000000E+00  0.000000000000E+00  0.000000000000E+00  0.000000000000E+00
  0.000000000000E+00  0.000000000000E+00  0.000000000000E+00
 pseudo wavefunction
  0.835100362373E-08  0.890294148304E-08  0.949135823912E-08  0.101186648697E-07  0.107874316999E-07
  0.115003989337E-07  0.122604878817E-07  0.130708129309E-07  0.139346943057E-07  0.148556716722E-07
  0.158375186410E-07  0.168842582304E-07  0.180001793489E-07  0.191898543697E-07  0.204581578650E-07
  0.218102865790E-07  0.232517807214E-07  0.247885466673E-07  0.264268811585E-07  0.281734971034E-07
  0.300355510829E-07  0.320206726729E-07  0.341369957067E-07  0.363931916018E-07  0.387985048906E-07
  0.413627910985E-07  0.440965571264E-07  0.470110043012E-07  0.501180742723E-07  0.534304979411E-07
  0.569618476248E-07  0.607265926674E-07  0.647401587263E-07  0.690189909773E-07  0.735806214972E-07
  0.784437410994E-07  0.836282759177E-07  0.891554690514E-07  0.950479676069E-07  0.101329915492E-06
  0.108027052341E-06  0.115166818984E-06  0.122778469880E-06  0.130893192984E-06  0.139544237536E-06
  0.148767050299E-06  0.158599420795E-06  0.169081636145E-06  0.180256646141E-06  0.192170239228E-06
  0.204871230116E-06  0.218411659795E-06  0.232847008768E-06  0.248236424370E-06  0.264642963126E-06
  0.282133849112E-06  0.300780749400E-06  0.320660067706E-06  0.341853257446E-06  0.364447155480E-06
  0.388534337916E-06  0.414213499433E-06  0.441589857668E-06  0.470775584330E-06  0.501890264817E-06
  0.535061388196E-06  0.570424869578E-06  0.608125607009E-06  0.648318075178E-06  0.691166958348E-06
  0.736847825137E-06  0.785547847882E-06  0.837466569555E-06  0.892816721362E-06  0.951825094380E-06
  0.101473346880E-05  0.108179960459E-05  0.115329829763E-05  0.122952250564E-05  0.131078454853E-05
  0.139741738810E-05  0.148977599226E-05  0.158823878951E-05  0.169320921942E-05  0.180511738572E-05
  0.192442181852E-05  0.205161135309E-05  0.218720713276E-05  0.233176474421E-05  0.248587649385E-05
  0.265017383472E-05  0.282532995369E-05  0.301206252974E-05  0.321113667446E-05  0.342336806691E-05
  0.364962629569E-05  0.389083842184E-05  0.414799277727E-05  0.442214301412E-05  0.471441242183E-05
  0.502599852952E-05  0.535817801244E-05  0.571231192277E-05  0.608985126607E-05  0.649234294624E-05
  0.692143610343E-05  0.737888887072E-05  0.786657557739E-05  0.838649442815E-05  0.894077568993E-05
  0.953169041961E-05  0.101616597686E-04  0.108332649022E-04  0.115492575746E-04  0.123125714025E-04
  0.131263338838E-04  0.139938792108E-04  0.149187619294E-04  0.159047715016E-04  0.169559478297E-04
  0.180765978069E-04  0.192713129610E-04  0.205449882639E-04  0.219028421846E-04  0.233504380659E-04
  0.248937069152E-04  0.265389716993E-04  0.282929732458E-04  0.301628978549E-04  0.321564067356E-04
  0.342816673866E-04  0.365473870504E-04  0.389628483772E-04  0.415379474448E-04  0.442832342897E-04
  0.472099561160E-04  0.503301033574E-04  0.536564587823E-04  0.572026498415E-04  0.609832044737E-04
  0.650136105952E-04  0.693103795192E-04  0.738911135621E-04  0.787745781135E-04  0.839807784653E-04
  0.895310417116E-04  0.954481040565E-04  0.101756203884E-03  0.108481180971E-03  0.115650582246E-03
  0.123293774535E-03  0.131442064733E-03  0.140128827915E-03  0.149389643897E-03  0.159262442796E-03
  0.169787660205E-03  0.181008402585E-03  0.192970623570E-03  0.205723311897E-03  0.219318691712E-03
  0.233812436087E-03  0.249263894599E-03  0.265736335899E-03  0.283297206259E-03  0.302018405144E-03
  0.321976578914E-03  0.343253433866E-03  0.365936069863E-03  0.390117335903E-03  0.415896209075E-03
  0.443378198415E-03  0.472675775288E-03  0.503908832055E-03  0.537205170822E-03  0.572701024286E-03
  0.610541610719E-03  0.650881725342E-03  0.693886370439E-03  0.739731426728E-03  0.788604368667E-03
  0.840705026526E-03  0.896246398263E-03  0.955455514411E-03  0.101857435938E-02  0.108586085284E-02
  0.115758989497E-02  0.123405447976E-02  0.131556688062E-02  0.140245991302E-02  0.149508827890E-02
  0.159382999821E-02  0.169908793301E-02  0.181129140994E-02  0.193089794731E-02  0.205839509337E-02
  0.219430238257E-02  0.233917341733E-02  0.249359808302E-02  0.265820490422E-02  0.283366355118E-02
  0.302068750535E-02  0.322003689393E-02  0.343252150328E-02  0.365900398218E-02  0.390040324598E-02
  0.415769809369E-02  0.443193105015E-02  0.472421244661E-02  0.503572475304E-02  0.536772717665E-02
  0.572156054133E-02  0.609865246349E-02  0.650052284049E-02  0.692878966815E-02  0.738517520471E-02
  0.787151249892E-02  0.838975230061E-02  0.894197037231E-02  0.953037522102E-02  0.101573162695E-01
  0.108252924863E-01  0.115369614947E-01  0.122951491786E-01  0.131028598058E-01  0.139632866862E-01
  0.148798233829E-01  0.158560754920E-01  0.168958730072E-01  0.180032832805E-01  0.191826245909E-01
  0.204384803279E-01  0.217757137925E-01  0.231994836171E-01  0.247152597958E-01  0.263288403141E-01
  0.280463683571E-01  0.298743500679E-01  0.318196728167E-01  0.338896239302E-01  0.360919098155E-01
  0.384346753996E-01  0.409265237844E-01  0.435765359976E-01  0.463942906981E-01  0.493898836641E-01
  0.525739468639E-01  0.559576668753E-01  0.595528023802E-01  0.633717004166E-01  0.674273110246E-01
  0.717331998675E-01  0.763035583486E-01  0.811532106813E-01  0.862976172947E-01  0.917528738803E-01
  0.975357052978E-01  0.103663453465E+00  0.110154058261E+00  0.117026030349E+00  0.124298414751E+00
  0.131990743830E+00  0.140122978274E+00  0.148715434511E+00  0.157788696887E+00  0.167363512796E+00
  0.177460668870E+00  0.188100846203E+00  0.199304452544E+00  0.211091429306E+00  0.223481031243E+00
  0.236491576680E+00  0.250140166255E+00  0.264442368328E+00  0.279411869437E+00  0.295060088591E+00
  0.311395754655E+00  0.328424446782E+00  0.346148098655E+00  0.364564468356E+00  0.383666576981E+00
  0.403442120585E+00  0.423872861885E+00  0.444934010187E+00  0.466593600310E+00  0.488811883910E+00
  0.511540749313E+00  0.534723188933E+00  0.558292836181E+00  0.582173596560E+00  0.606279399942E+00
  0.630514102619E+00  0.654771568283E+00  0.678935955922E+00  0.702882239383E+00  0.726476977076E+00
  0.749579340425E+00  0.772042395128E+00  0.793714609327E+00  0.814441536504E+00  0.834067587651E+00
  0.852437766707E+00  0.869399195632E+00  0.884802201888E+00  0.898500683867E+00  0.910351412888E+00
  0.920211879967E+00  0.927936260366E+00  0.933369060985E+00  0.936336050270E+00  0.936632166338E+00
  0.934006278355E+00  0.928139957137E+00  0.918838625607E+00  0.906231421489E+00  0.890512683812E+00
  0.871895841655E+00  0.850610737073E+00  0.826900907710E+00  0.801020858906E+00  0.773233359588E+00
  0.743806758003E+00  0.713012297791E+00  0.681121408045E+00  0.648402926026E+00  0.615120235818E+00
  0.581528328713E+00  0.547870850895E+00  0.514377207758E+00  0.481259969933E+00  0.448712623393E+00
  0.416907913900E+00  0.385996857973E+00  0.356108472681E+00  0.327350198566E+00  0.299808924934E+00
  0.273552477174E+00  0.248631396136E+00  0.225080830746E+00  0.202922376498E+00  0.182165722426E+00
  0.162810014784E+00  0.144844901491E+00  0.128251278886E+00  0.113001811335E+00  0.990613252593E-01
  0.863871873096E-01  0.749297625166E-01  0.646330185903E-01  0.554353060153E-01  0.472703086626E-01
  0.400681322468E-01  0.337564807465E-01  0.282618637788E-01  0.235107790513E-01  0.194308208866E-01
  0.159516759668E-01  0.130059788431E-01  0.105300109594E-01  0.846423701276E-02  0.675368094628E-02
  0.534815053614E-02  0.420232443908E-02  0.327571882933E-02
 ae wavefunction
 -0.102472886723E-04 -0.108350209532E-04 -0.114549459026E-04 -0.121089170593E-04 -0.127988910540E-04
 -0.135269336239E-04 -0.142952259713E-04 -0.151060714855E-04 -0.159619028504E-04 -0.168652895609E-04
 -0.178189458725E-04 -0.188257392101E-04 -0.198886990636E-04 -0.210110263989E-04 -0.221961036166E-04
 -0.234475050893E-04 -0.247690083146E-04 -0.261646057173E-04 -0.276385171441E-04 -0.291952030881E-04
 -0.308393786894E-04 -0.325760285572E-04 -0.344104224641E-04 -0.363481319608E-04 -0.383950479726E-04
 -0.405573994297E-04 -0.428417729977E-04 -0.452551339723E-04 -0.478048484075E-04 -0.504987065511E-04
 -0.533449476663E-04 -0.563522863198E-04 -0.595299402264E-04 -0.628876597410E-04 -0.664357590960E-04
 -0.701851494890E-04 -0.741473741292E-04 -0.783346453601E-04 -0.827598839801E-04 -0.874367608932E-04
 -0.923797412250E-04 -0.976041310528E-04 -0.103126126901E-03 -0.108962868167E-03 -0.115132492649E-03
 -0.121654195358E-03 -0.128548290806E-03 -0.135836278977E-03 -0.143540915188E-03 -0.151686284078E-03
 -0.160297877953E-03 -0.169402679745E-03 -0.179029250857E-03 -0.189207824160E-03 -0.199970402454E-03
 -0.211350862693E-03 -0.223385066313E-03 -0.236110975993E-03 -0.249568779234E-03 -0.263801019118E-03
 -0.278852732661E-03 -0.294771597181E-03 -0.311608085123E-03 -0.329415627796E-03 -0.348250788537E-03
 -0.368173445777E-03 -0.389246986581E-03 -0.411538511189E-03 -0.435119049171E-03 -0.460063787791E-03
 -0.486452313225E-03 -0.514368865300E-03 -0.543902606446E-03 -0.575147905590E-03 -0.608204637730E-03
 -0.643178499981E-03 -0.680181344908E-03 -0.719331531958E-03 -0.760754297891E-03 -0.804582147077E-03
 -0.850955262603E-03 -0.900021939122E-03 -0.951939038433E-03 -0.100687246878E-02 -0.106499768890E-02
 -0.112650023783E-02 -0.119157629163E-02 -0.126043324790E-02 -0.133329033941E-02 -0.141037927773E-02
 -0.149194492809E-02 -0.157824601642E-02 -0.166955586977E-02 -0.176616319108E-02 -0.186837286933E-02
 -0.197650682606E-02 -0.209090489923E-02 -0.221192576524E-02 -0.233994789987E-02 -0.247537057899E-02
 -0.261861491952E-02 -0.277012496106E-02 -0.293036878868E-02 -0.309983969690E-02 -0.327905739481E-02
 -0.346856925211E-02 -0.366895158552E-02 -0.388081098472E-02 -0.410478567670E-02 -0.434154692697E-02
 -0.459180047573E-02 -0.485628800666E-02 -0.513578864523E-02 -0.543112048335E-02 -0.574314212596E-02
 -0.607275425503E-02 -0.642090120514E-02 -0.678857254446E-02 -0.717680465363E-02 -0.758668229421E-02
 -0.801934015737E-02 -0.847596438196E-02 -0.895779403005E-02 -0.946612250666E-02 -0.100022989085E-01
 -0.105677292853E-01 -0.111638777952E-01 -0.117922677341E-01 -0.124544824157E-01 -0.131521658795E-01
 -0.138870233970E-01 -0.146608217494E-01 -0.154753892422E-01 -0.163326154240E-01 -0.172344504687E-01
 -0.181829041828E-01 -0.191800445911E-01 -0.202279960544E-01 -0.213289368665E-01 -0.224850962763E-01
 -0.236987508755E-01 -0.249722202889E-01 -0.263078621013E-01 -0.277080659487E-01 -0.291752467007E-01
 -0.307118366543E-01 -0.323202766560E-01 -0.340030060684E-01 -0.357624514884E-01 -0.376010141264E-01
 -0.395210557502E-01 -0.415248830954E-01 -0.436147306433E-01 -0.457927416646E-01 -0.480609474300E-01
 -0.504212444856E-01 -0.528753698970E-01 -0.554248743667E-01 -0.580710931358E-01 -0.608151145859E-01
 -0.636577464684E-01 -0.665994796964E-01 -0.696404496494E-01 -0.727803949560E-01 -0.760186137408E-01
 -0.793539173401E-01 -0.827845815214E-01 -0.863082952697E-01 -0.899221072365E-01 -0.936223699892E-01
 -0.974046822397E-01 -0.101263829283E+00 -0.105193721927E+00 -0.109187334256E+00 -0.113236640634E+00
 -0.117332552418E+00 -0.121464854931E+00 -0.125622145284E+00 -0.129791771748E+00 -0.133959775394E+00
 -0.138110834806E+00 -0.142228214714E+00 -0.146293719470E+00 -0.150287652370E+00 -0.154188781947E+00
 -0.157974316528E+00 -0.161619888579E+00 -0.165099550588E+00 -0.168385784499E+00 -0.171449526902E+00
 -0.174260212283E+00 -0.176785836685E+00 -0.178993044042E+00 -0.180847237286E+00 -0.182312716172E+00
 -0.183352843493E+00 -0.183930241165E+00 -0.184007017445E+00 -0.183545026410E+00 -0.182506160667E+00
 -0.180852678076E+00 -0.178547563033E+00 -0.175554922516E+00 -0.171840416678E+00 -0.167371723299E+00
 -0.162119034818E+00 -0.156055586058E+00 -0.149158210050E+00 -0.141407918538E+00 -0.132790502950E+00
 -0.123297150645E+00 -0.112925070295E+00 -0.101678119241E+00 -0.895674246198E-01 -0.766119890172E-01
 -0.628392704123E-01 -0.482857252075E-01 -0.329973022911E-01 -0.170298753255E-01 -0.449599867697E-03
  0.166668184694E-01  0.342319587042E-01  0.521476355857E-01  0.703049796907E-01  0.885846572880E-01
  0.106857238048E+00  0.124983715583E+00  0.142816183454E+00  0.160198669250E+00  0.176968132936E+00
  0.192955642526E+00  0.207987747176E+00  0.221888068867E+00  0.234479122186E+00  0.245584347937E+00
  0.255030323436E+00  0.262649105313E+00  0.268280669471E+00  0.271775423489E+00  0.272996768401E+00
  0.271823680045E+00  0.268153271706E+00  0.261903294668E+00  0.253014532437E+00  0.241453045800E+00
  0.227212227544E+00  0.210314626202E+00  0.190813497593E+00  0.168794041569E+00  0.144374279964E+00
  0.117705531011E+00  0.889724362548E-01  0.583924991795E-01  0.262151011312E-01 -0.728003019667E-02
 -0.417849123946E-01 -0.769659613172E-01 -0.112467199938E+00 -0.147914017768E+00 -0.182917473942E+00
 -0.217079101936E+00 -0.249996050157E+00 -0.281266155683E+00 -0.310492338788E+00 -0.337285915116E+00
 -0.361269394536E+00 -0.382080559367E+00 -0.399379300150E+00 -0.412856108162E+00 -0.422239455031E+00
 -0.427300826194E+00 -0.427858101823E+00 -0.423778169764E+00 -0.414979071622E+00 -0.401431580818E+00
 -0.383159989451E+00 -0.360241927524E+00 -0.332807157145E+00 -0.301035398200E+00 -0.265153310607E+00
 -0.225430782964E+00 -0.182176673381E+00 -0.135734133820E+00 -0.864756317171E-01 -0.347977671704E-01
  0.188840279451E-01  0.741408309009E-01  0.130535535278E+00  0.187628052496E+00  0.244980336902E+00
  0.302161166895E+00  0.358750621188E+00  0.414344200365E+00  0.468556552144E+00  0.521024757177E+00
  0.571411110866E+00  0.619405293616E+00  0.664725784916E+00  0.707120394952E+00  0.746365921372E+00
  0.782267188752E+00  0.814655980806E+00  0.843390443866E+00  0.868355317124E+00  0.889462932195E+00
  0.906654594178E+00  0.919901848210E+00  0.929207271663E+00  0.934604632130E+00  0.936158407424E+00
  0.933962745793E+00  0.928139957137E+00  0.918838625607E+00  0.906231421489E+00  0.890512683812E+00
  0.871895841655E+00  0.850610737073E+00  0.826900907710E+00  0.801020858906E+00  0.773233359588E+00
  0.743806758003E+00  0.713012297791E+00  0.681121408045E+00  0.648402926026E+00  0.615120235818E+00
  0.581528328713E+00  0.547870850895E+00  0.514377207758E+00  0.481259969933E+00  0.448712623393E+00
  0.416907913900E+00  0.385996857973E+00  0.356108472681E+00  0.327350198566E+00  0.299808924934E+00
  0.273552477174E+00  0.248631396136E+00  0.225080830746E+00  0.202922376498E+00  0.182165722426E+00
  0.162810014784E+00  0.144844901491E+00  0.128251278886E+00  0.113001811335E+00  0.990613252593E-01
  0.863871873096E-01  0.749297625166E-01  0.646330185903E-01  0.554353060153E-01  0.472703086626E-01
  0.400681322468E-01  0.337564807465E-01  0.282618637788E-01  0.235107790513E-01  0.194308208866E-01
  0.159516759668E-01  0.130059788431E-01  0.105300109594E-01  0.846423701276E-02  0.675368094628E-02
  0.534815053614E-02  0.420232443908E-02  0.327571882933E-02
 pseudo wavefunction
  0.123826107077E-07  0.132010071489E-07  0.140734933735E-07  0.150036443051E-07  0.159952711424E-07
  0.170524369753E-07  0.181794734333E-07  0.193809984334E-07  0.206619351019E-07  0.220275319463E-07
  0.234833843606E-07  0.250354575518E-07  0.266901109815E-07  0.284541244236E-07  0.303347257434E-07
  0.323396205131E-07  0.344770235846E-07  0.367556927490E-07  0.391849646208E-07  0.417747928938E-07
  0.445357891251E-07  0.474792662149E-07  0.506172847603E-07  0.539627024719E-07  0.575292268571E-07
  0.613314713853E-07  0.653850153650E-07  0.697064677783E-07  0.743135353348E-07  0.792250950226E-07
  0.844612714550E-07  0.900435193291E-07  0.959947113340E-07  0.102339231869E-06  0.109103076958E-06
  0.116313960761E-06  0.124001429136E-06  0.132196980695E-06  0.140934195870E-06  0.150248874500E-06
  0.160179182524E-06  0.170765808358E-06  0.182052129609E-06  0.194084390817E-06  0.206911892930E-06
  0.220587195313E-06  0.235166331104E-06  0.250709036803E-06  0.267278997038E-06  0.284944105500E-06
  0.303776743138E-06  0.323854074726E-06  0.345258365038E-06  0.368077315922E-06  0.392404425645E-06
  0.418339371993E-06  0.445988420688E-06  0.475464860803E-06  0.506889468948E-06  0.540391004138E-06
  0.576106735370E-06  0.614183004064E-06  0.654775823684E-06  0.698051518978E-06  0.744187407478E-06
  0.793372526038E-06  0.845808405383E-06  0.901709895861E-06  0.961306047765E-06  0.102484104983E-05
  0.109257522979E-05  0.116478612097E-05  0.124176959955E-05  0.132384109677E-05  0.141133689142E-05
  0.150461548769E-05  0.160405908409E-05  0.171007513943E-05  0.182309804235E-05  0.194359089116E-05
  0.207204739127E-05  0.220899387813E-05  0.235499147376E-05  0.251063838586E-05  0.267657235888E-05
  0.285347328705E-05  0.304206600013E-05  0.324312323326E-05  0.345746879308E-05  0.368598093314E-05
  0.392959595234E-05  0.418931203123E-05  0.446619332184E-05  0.476137430776E-05  0.507606445247E-05
  0.541155315479E-05  0.576921503188E-05  0.615051555136E-05  0.655701703563E-05  0.699038506310E-05
  0.745239529235E-05  0.794494073737E-05  0.847003952351E-05  0.902984315612E-05  0.962664533557E-05
  0.102628913548E-04  0.109411881179E-04  0.116643148209E-04  0.124352343385E-04  0.132571053626E-04
  0.141332953442E-04  0.150673942891E-04  0.160632294667E-04  0.171248810898E-04  0.182566990310E-04
  0.194633206434E-04  0.207496897594E-04  0.221210769443E-04  0.235831010891E-04  0.251417524290E-04
  0.268034170842E-04  0.285749032209E-04  0.304634689417E-04  0.324768520191E-04  0.346233015926E-04
  0.369116119609E-04  0.393511586064E-04  0.419519365998E-04  0.447246015421E-04  0.476805132112E-04
  0.508317820923E-04  0.541913189819E-04  0.577728878686E-04  0.615911623069E-04  0.656617855157E-04
  0.700014344449E-04  0.746278880751E-04  0.795601002274E-04  0.848182771816E-04  0.904239604217E-04
  0.964001148443E-04  0.102771222792E-03  0.109563384297E-03  0.116804423941E-03  0.124524004773E-03
  0.132753749745E-03  0.141527371166E-03  0.150880808697E-03  0.160852376462E-03  0.171482919856E-03
  0.182815982709E-03  0.194897985478E-03  0.207778415191E-03  0.221510027929E-03  0.236149064651E-03
  0.251755481265E-03  0.268393193863E-03  0.286130340121E-03  0.305039557940E-03  0.325198282439E-03
  0.346689062531E-03  0.369599898342E-03  0.394024600865E-03  0.420063175294E-03  0.447822229594E-03
  0.477415409965E-03  0.508963864960E-03  0.542596740130E-03  0.578451705202E-03  0.616675515911E-03
  0.657424612752E-03  0.700865759063E-03  0.747176721017E-03  0.796546992230E-03  0.849178565919E-03
  0.905286757687E-03  0.965101082235E-03  0.102886618750E-02  0.109684284992E-02  0.116930903489E-02
  0.124656102639E-02  0.132891463061E-02  0.141670645796E-02  0.151029528881E-02  0.161006352819E-02
  0.171641875519E-02  0.182979537311E-02  0.195065636688E-02  0.207949517442E-02  0.221683767940E-02
  0.236324433282E-02  0.251931241189E-02  0.268567842456E-02  0.286302066899E-02  0.305206195768E-02
  0.325357251643E-02  0.346837306907E-02  0.369733811939E-02  0.394139944240E-02  0.420154979775E-02
  0.447884687881E-02  0.477441751169E-02  0.508946211912E-02  0.542525946510E-02  0.578317169689E-02
  0.616464970177E-02  0.657123879690E-02  0.700458477143E-02  0.746644030095E-02  0.795867175526E-02
  0.848326642120E-02  0.904234016341E-02  0.963814554655E-02  0.102730804434E-01  0.109496971542E-01
  0.116707120631E-01  0.124390158587E-01  0.132576843451E-01  0.141299898729E-01  0.150594134161E-01
  0.160496573248E-01  0.171046587811E-01  0.182286039858E-01  0.194259431047E-01  0.207014059977E-01
  0.220600187592E-01  0.235071210902E-01  0.250483845229E-01  0.266898315165E-01  0.284378554367E-01
  0.302992414264E-01  0.322811881734E-01  0.343913305674E-01  0.366377632366E-01  0.390290649394E-01
  0.415743237782E-01  0.442831631875E-01  0.471657686316E-01  0.502329149313E-01  0.534959941151E-01
  0.569670436677E-01  0.606587750192E-01  0.645846020878E-01  0.687586696505E-01  0.731958812761E-01
  0.779119265068E-01  0.829233069227E-01  0.882473606615E-01  0.939022849025E-01  0.999071557438E-01
  0.106281944824E+00  0.113047531942E+00  0.120225712827E+00  0.127839201103E+00  0.135911623360E+00
  0.144467506118E+00  0.153532253311E+00  0.163132112781E+00  0.173294130078E+00  0.184046087708E+00
  0.195416427754E+00  0.207434155639E+00  0.220128722542E+00  0.233529883845E+00  0.247667530723E+00
  0.262571491835E+00  0.278271301905E+00  0.294795933782E+00  0.312173490521E+00  0.330430853894E+00
  0.349593285780E+00  0.369683978950E+00  0.390723553939E+00  0.412729499027E+00  0.435715550803E+00
  0.459691013480E+00  0.484660015960E+00  0.510620706840E+00  0.537564388958E+00  0.565474596840E+00
  0.594326122565E+00  0.624083998048E+00  0.654702444702E+00  0.686123804749E+00  0.718277472164E+00
  0.751078845285E+00  0.784428327380E+00  0.818210405796E+00  0.852292844519E+00  0.886526028710E+00
  0.920742502665E+00  0.954756744132E+00  0.988365217450E+00  0.102134674460E+01  0.105346322630E+01
  0.108446073346E+01  0.111407097189E+01  0.114201309863E+01  0.116799583612E+01  0.119171978962E+01
  0.121287982415E+01  0.123116729969E+01  0.124627190046E+01  0.125788272862E+01  0.126568827112E+01
  0.126937479961E+01  0.126862273966E+01  0.126310056385E+01  0.125245584377E+01  0.123630326409E+01
  0.121420968427E+01  0.118567870407E+01  0.115037724671E+01  0.110841653494E+01  0.105998822681E+01
  0.000000000000E+00  0.000000000000E+00  0.000000000000E+00  0.000000000000E+00  0.000000000000E+00
  0.000000000000E+00  0.000000000000E+00  0.000000000000E+00  0.000000000000E+00  0.000000000000E+00
  0.000000000000E+00  0.000000000000E+00  0.000000000000E+00  0.000000000000E+00  0.000000000000E+00
  0.000000000000E+00  0.000000000000E+00  0.000000000000E+00  0.000000000000E+00  0.000000000000E+00
  0.000000000000E+00  0.000000000000E+00  0.000000000000E+00  0.000000000000E+00  0.000000000000E+00
  0.000000000000E+00  0.000000000000E+00  0.000000000000E+00  0.000000000000E+00  0.000000000000E+00
  0.000000000000E+00  0.000000000000E+00  0.000000000000E+00  0.000000000000E+00  0.000000000000E+00
  0.000000000000E+00  0.000000000000E+00  0.000000000000E+00  0.000000000000E+00  0.000000000000E+00
  0.000000000000E+00  0.000000000000E+00  0.000000000000E+00  0.000000000000E+00  0.000000000000E+00
  0.000000000000E+00  0.000000000000E+00  0.000000000000E+00
 ae wavefunction
 -0.147604293229E-04 -0.156070124519E-04 -0.164999666397E-04 -0.174419617668E-04 -0.184358162090E-04
 -0.194845055021E-04 -0.205911715002E-04 -0.217591320584E-04 -0.229918912709E-04 -0.242931502974E-04
 -0.256668188142E-04 -0.271170271265E-04 -0.286481389814E-04 -0.302647651241E-04 -0.319717776425E-04
 -0.337743251457E-04 -0.356778488281E-04 -0.376880994711E-04 -0.398111554390E-04 -0.420534417291E-04
 -0.444217501384E-04 -0.469232606130E-04 -0.495655638550E-04 -0.523566852549E-04 -0.553051102377E-04
 -0.584198110981E-04 -0.617102754217E-04 -0.651865361812E-04 -0.688592036111E-04 -0.727394989644E-04
 -0.768392902660E-04 -0.811711301793E-04 -0.857482961136E-04 -0.905848327055E-04 -0.956955968136E-04
 -0.101096305179E-03 -0.106803584907E-03 -0.112835026939E-03 -0.119209242692E-03 -0.125945924051E-03
 -0.133065906918E-03 -0.140591238519E-03 -0.148545248702E-03 -0.156952625452E-03 -0.165839494869E-03
 -0.175233505892E-03 -0.185163920012E-03 -0.195661706301E-03 -0.206759642043E-03 -0.218492419306E-03
 -0.230896757794E-03 -0.244011524345E-03 -0.257877859459E-03 -0.272539311259E-03 -0.288041977313E-03
 -0.304434654766E-03 -0.321768999249E-03 -0.340099693078E-03 -0.359484623249E-03 -0.379985069791E-03
 -0.401665905052E-03 -0.424595804532E-03 -0.448847469888E-03 -0.474497864799E-03 -0.501628464381E-03
 -0.530325518889E-03 -0.560680332488E-03 -0.592789557886E-03 -0.626755507684E-03 -0.662686483313E-03
 -0.700697122497E-03 -0.740908766178E-03 -0.783449845925E-03 -0.828456292850E-03 -0.876071969135E-03
 -0.926449123263E-03 -0.979748870152E-03 -0.103614169738E-02 -0.109580799873E-02 -0.115893863644E-02
 -0.122573553328E-02 -0.129641229613E-02 -0.137119487214E-02 -0.145032223913E-02 -0.153404713167E-02
 -0.162263680419E-02 -0.171637383286E-02 -0.181555695760E-02 -0.192050196594E-02 -0.203154262009E-02
 -0.214903162904E-02 -0.227334166699E-02 -0.240486643985E-02 -0.254402180123E-02 -0.269124691937E-02
 -0.284700549656E-02 -0.301178704212E-02 -0.318610820058E-02 -0.337051413582E-02 -0.356557997250E-02
 -0.377191229536E-02 -0.399015070735E-02 -0.422096944685E-02 -0.446507906419E-02 -0.472322815758E-02
 -0.499620516789E-02 -0.528484023157E-02 -0.559000709050E-02 -0.591262505721E-02 -0.625366103317E-02
 -0.661413157742E-02 -0.699510502211E-02 -0.739770363073E-02 -0.782310579407E-02 -0.827254825797E-02
 -0.874732837591E-02 -0.924880637852E-02 -0.977840765063E-02 -0.103376250054E-01 -0.109280209435E-01
 -0.115512298834E-01 -0.122089603482E-01 -0.129029970906E-01 -0.136352031376E-01 -0.144075217331E-01
 -0.152219781544E-01 -0.160806813762E-01 -0.169858255523E-01 -0.179396912843E-01 -0.189446466387E-01
 -0.200031478777E-01 -0.211177398570E-01 -0.222910560474E-01 -0.235258181277E-01 -0.248248350955E-01
 -0.261910018349E-01 -0.276272970796E-01 -0.291367806994E-01 -0.307225902384E-01 -0.323879366238E-01
 -0.341360989613E-01 -0.359704183256E-01 -0.378942904511E-01 -0.399111572188E-01 -0.420244968339E-01
 -0.442378125784E-01 -0.465546200219E-01 -0.489784325647E-01 -0.515127451847E-01 -0.541610162547E-01
 -0.569266472911E-01 -0.598129604944E-01 -0.628231739370E-01 -0.659603742533E-01 -0.692274866881E-01
 -0.726272423576E-01 -0.761621425836E-01 -0.798344201640E-01 -0.836459974507E-01 -0.875984411149E-01
 -0.916929134934E-01 -0.959301204236E-01 -0.100310255495E+00 -0.104832940669E+00 -0.109497163240E+00
 -0.114301209157E+00 -0.119242592742E+00 -0.124317982909E+00 -0.129523126009E+00 -0.134852765512E+00
 -0.140300558771E+00 -0.145858991215E+00 -0.151519288360E+00 -0.157271326146E+00 -0.163103540172E+00
 -0.169002834524E+00 -0.174954490962E+00 -0.180942079345E+00 -0.186947370281E+00 -0.192950251049E+00
 -0.198928645942E+00 -0.204858442271E+00 -0.210713423340E+00 -0.216465209843E+00 -0.222083211315E+00
 -0.227534589488E+00 -0.232784235751E+00 -0.237794765243E+00 -0.242526530472E+00 -0.246937657640E+00
 -0.250984108998E+00 -0.254619774622E+00 -0.257796596843E+00 -0.260464730416E+00 -0.262572741162E+00
 -0.264067845553E+00 -0.264896193329E+00 -0.265003195017E+00 -0.264333895926E+00 -0.262833398061E+00
 -0.260447331071E+00 -0.257122373009E+00 -0.252806821227E+00 -0.247451213075E+00 -0.241008995414E+00
 -0.233437241124E+00 -0.224697409879E+00 -0.214756149433E+00 -0.203586132532E+00 -0.191166923349E+00
 -0.177485865966E+00 -0.162538986077E+00 -0.146331895551E+00 -0.128880688066E+00 -0.110212812467E+00
 -0.903679090910E-01 -0.693985929144E-01 -0.473711661198E-01 -0.243662416295E-01 -0.479258272805E-03
  0.241791323049E-01  0.494828270375E-01  0.752902007133E-01  0.101444221305E+00  0.127772766914E+00
  0.154089156012E+00  0.180192898231E+00  0.205870669541E+00  0.230897515660E+00  0.255038292698E+00
  0.278049363912E+00  0.299680581635E+00  0.319677584908E+00  0.337784426586E+00  0.353746509392E+00
  0.367313777424E+00  0.378244099518E+00  0.386306793577E+00  0.391286256278E+00  0.392985664925E+00
  0.391230708463E+00  0.385873292450E+00  0.376795155425E+00  0.363911332772E+00  0.347173406254E+00
  0.326572479668E+00  0.302141821826E+00  0.273959117126E+00  0.242148262003E+00  0.206880643398E+00
  0.168375834336E+00  0.126901642704E+00  0.827734539390E-01  0.363528174250E-01 -0.119547596013E-01
 -0.617028295381E-01 -0.112407835698E+00 -0.163553750172E+00 -0.214597511294E+00 -0.264975251326E+00
 -0.314109253962E+00 -0.361415402367E+00 -0.406310536595E+00 -0.448218838216E+00 -0.486576664439E+00
 -0.520836657906E+00 -0.550473719346E+00 -0.574994967697E+00 -0.593952090003E+00 -0.606952085733E+00
 -0.613664633455E+00 -0.613827083716E+00 -0.607248352064E+00 -0.593812143191E+00 -0.573479357705E+00
 -0.546289358591E+00 -0.512359842954E+00 -0.471885236815E+00 -0.425133694700E+00 -0.372442884155E+00
 -0.314214770429E+00 -0.250909610343E+00 -0.183039343271E+00 -0.111160541739E+00 -0.358670618523E-01
  0.422174833268E-01  0.122447316132E+00  0.204162046902E+00  0.286694083895E+00  0.369375798962E+00
  0.451546352111E+00  0.532558087721E+00  0.611782431201E+00  0.688615226705E+00  0.762481453858E+00
  0.832839230546E+00  0.899182947412E+00  0.961045329293E+00  0.101799825102E+01  0.106965233459E+01
  0.111565571719E+01  0.115569273553E+01  0.118948335279E+01  0.121678381343E+01  0.123738840792E+01
  0.125113175944E+01  0.125789090308E+01  0.125758663555E+01  0.125018390561E+01  0.123569123788E+01
  0.121415929579E+01  0.118567870407E+01  0.115037724671E+01  0.110841653494E+01  0.105998822681E+01
  0.000000000000E+00  0.000000000000E+00  0.000000000000E+00  0.000000000000E+00  0.000000000000E+00
  0.000000000000E+00  0.000000000000E+00  0.000000000000E+00  0.000000000000E+00  0.000000000000E+00
  0.000000000000E+00  0.000000000000E+00  0.000000000000E+00  0.000000000000E+00  0.000000000000E+00
  0.000000000000E+00  0.000000000000E+00  0.000000000000E+00  0.000000000000E+00  0.000000000000E+00
  0.000000000000E+00  0.000000000000E+00  0.000000000000E+00  0.000000000000E+00  0.000000000000E+00
  0.000000000000E+00  0.000000000000E+00  0.000000000000E+00  0.000000000000E+00  0.000000000000E+00
  0.000000000000E+00  0.000000000000E+00  0.000000000000E+00  0.000000000000E+00  0.000000000000E+00
  0.000000000000E+00  0.000000000000E+00  0.000000000000E+00  0.000000000000E+00  0.000000000000E+00
  0.000000000000E+00  0.000000000000E+00  0.000000000000E+00  0.000000000000E+00  0.000000000000E+00
  0.000000000000E+00  0.000000000000E+00  0.000000000000E+00
 pseudo wavefunction
  0.177267236747E-12  0.195128517616E-12  0.214789484431E-12  0.236431471862E-12  0.260254085695E-12
  0.286477043805E-12  0.315342202634E-12  0.347115787857E-12  0.382090849794E-12  0.420589966245E-12
  0.462968217645E-12  0.509616462004E-12  0.560964939816E-12  0.617487242208E-12  0.679704678906E-12
  0.748191086314E-12  0.823578120059E-12  0.906561080795E-12  0.997905327024E-12  0.109845333405E-11
  0.120913246421E-11  0.133096351999E-11  0.146507015899E-11  0.161268925751E-11  0.177518231832E-11
  0.195404802798E-11  0.215093607926E-11  0.236766238647E-11  0.260622583375E-11  0.286882671090E-11
  0.315788700693E-11  0.347607274814E-11  0.382631858719E-11  0.421185486959E-11  0.463623742748E-11
  0.510338037528E-11  0.561759220998E-11  0.618361554869E-11  0.680667087020E-11  0.749250466388E-11
  0.824744243004E-11  0.907844702050E-11  0.999318285755E-11  0.110000866236E-10  0.121084450732E-10
  0.133284806858E-10  0.146714459483E-10  0.161497271379E-10  0.177769585613E-10  0.195681483057E-10
  0.215398166589E-10  0.237101484779E-10  0.260991609088E-10  0.287288880071E-10  0.316235839592E-10
  0.348099467812E-10  0.383173645563E-10  0.421781864842E-10  0.464280212402E-10  0.511060653970E-10
  0.562554649379E-10  0.619237131961E-10  0.681630888895E-10  0.750311382920E-10  0.825912059874E-10
  0.909130191023E-10  0.100073330405E-09  0.110156626203E-09  0.121255905569E-09  0.133473538077E-09
  0.146922207966E-09  0.161725953441E-09  0.178021310682E-09  0.195958573135E-09  0.215703177679E-09
  0.237437230466E-09  0.261361186503E-09  0.287695698467E-09  0.316683651805E-09  0.348592404891E-09
  0.383716254894E-09  0.422379152115E-09  0.464937687805E-09  0.511784383048E-09  0.563351309016E-09
  0.620114072012E-09  0.682596200028E-09  0.751373971305E-09  0.827081729401E-09  0.910417733817E-09
  0.100215060012E-08  0.110312638895E-08  0.121427640937E-08  0.133662580840E-08  0.147130302610E-08
  0.161955020328E-08  0.178273463792E-08  0.196236139596E-08  0.216008719269E-08  0.237773567284E-08
  0.261731423034E-08  0.288103252277E-08  0.317132285132E-08  0.349086259433E-08  0.384259890108E-08
  0.422977587384E-08  0.465596448876E-08  0.512509553154E-08  0.564149585177E-08  0.620992827021E-08
  0.683563550716E-08  0.752438853711E-08  0.828253981552E-08  0.911708186887E-08  0.100357117882E-07
  0.110469022211E-07  0.121599795170E-07  0.133852097462E-07  0.147338933864E-07  0.162184695503E-07
  0.178526307147E-07  0.196514490102E-07  0.216315152361E-07  0.238110918829E-07  0.262102815727E-07
  0.288512124733E-07  0.317582423942E-07  0.349581834485E-07  0.384805493513E-07  0.423578276379E-07
  0.466257793110E-07  0.513237686814E-07  0.564951264449E-07  0.621875493444E-07  0.684535401039E-07
  0.753508916919E-07  0.829432203827E-07  0.913005525314E-07  0.100499970476E-06  0.110626323525E-06
  0.121773010591E-06  0.134042841684E-06  0.147548986220E-06  0.162416016892E-06  0.178781058721E-06
  0.196795053913E-06  0.216624154158E-06  0.238451253255E-06  0.262477674164E-06  0.288925026080E-06
  0.318037248650E-06  0.350082862197E-06  0.385357444711E-06  0.424186358475E-06  0.466927751463E-06
  0.513975861235E-06  0.565764651798E-06  0.622771816997E-06  0.685523187397E-06  0.754597581314E-06
  0.830632144771E-06  0.914328229680E-06  0.100645786449E-05  0.110787087705E-05  0.121950273541E-05
  0.134238317903E-05  0.147764571996E-05  0.162653810184E-05  0.179043381321E-05  0.197084476153E-05
  0.216943522492E-05  0.238803721045E-05  0.262866736092E-05  0.289354556632E-05  0.318511545182E-05
  0.350606693175E-05  0.385936103790E-05  0.424825725165E-05  0.467634359260E-05  0.514756974189E-05
  0.566628350641E-05  0.623727096129E-05  0.686580064180E-05  0.755767219368E-05  0.831926993200E-05
  0.915762180427E-05  0.100804643037E-04  0.110963139338E-04  0.122145458859E-04  0.134454806591E-04
  0.148004794251E-04  0.162920490213E-04  0.179339575482E-04  0.197413616399E-04  0.217309465922E-04
  0.239210806475E-04  0.263319848697E-04  0.289859201884E-04  0.319073933501E-04  0.351233836936E-04
  0.386635928590E-04  0.425607197553E-04  0.468507633512E-04  0.515733561079E-04  0.567721311698E-04
  0.624951267380E-04  0.687952314064E-04  0.757306746262E-04  0.833655668876E-04  0.917704946814E-04
  0.101023175819E-03  0.111209181262E-03  0.122422730250E-03  0.134767566195E-03  0.148357921613E-03
  0.163319581175E-03  0.179791052930E-03  0.197924858772E-03  0.217888956383E-03  0.239868306127E-03
  0.264066597804E-03  0.290708153697E-03  0.320040026050E-03  0.352334309039E-03  0.387890687358E-03
  0.427039245885E-03  0.470143567430E-03  0.517604148440E-03  0.569862165640E-03  0.627403630105E-03
  0.690763969071E-03  0.760533080117E-03  0.837360907024E-03  0.921963591898E-03  0.101513026395E-02
  0.111773053174E-02  0.123072275293E-02  0.135516316330E-02  0.149221595589E-02  0.164316441049E-02
  0.180942318491E-02  0.199255189095E-02  0.219427009175E-02  0.241647387161E-02  0.266125414565E-02
  0.293091689486E-02  0.322800553204E-02  0.355532562608E-02  0.391597223646E-02  0.431336013697E-02
  0.475125723704E-02  0.523382154201E-02  0.576564202937E-02  0.635178385761E-02  0.699783836722E-02
  0.770997838057E-02  0.849501935831E-02  0.936048702553E-02  0.103146921404E-01  0.113668131418E-01
  0.125269874813E-01  0.138064125153E-01  0.152174569093E-01  0.167737835834E-01  0.184904853063E-01
  0.203842341228E-01  0.224734458750E-01  0.247784611465E-01  0.273217440156E-01  0.301281000509E-01
  0.332249149995E-01  0.366424156146E-01  0.404139540192E-01  0.445763169038E-01  0.491700606883E-01
  0.542398735292E-01  0.598349646941E-01  0.660094813384E-01  0.728229520717E-01  0.803407558611E-01
  0.886346137496E-01  0.977830995269E-01  0.107872163835E+00  0.118995664179E+00  0.131255890878E+00
  0.144764076150E+00  0.159640870118E+00  0.176016763711E+00  0.194032434002E+00  0.213838982694E+00
  0.235598033130E+00  0.259481645647E+00  0.285672005338E+00  0.314360830747E+00  0.345748447046E+00
  0.380042463250E+00  0.417455990822E+00  0.458205341259E+00  0.502507143914E+00  0.550574833491E+00
  0.602614470275E+00  0.658819876507E+00  0.719367099994E+00  0.784408251618E+00  0.854064806601E+00
  0.928420508667E+00  0.100751406890E+01  0.109133190203E+01  0.117980118469E+01  0.127278354259E+01
  0.137006966297E+01  0.147137742353E+01  0.157664611941E+01  0.168639728726E+01  0.180131120941E+01
  0.000000000000E+00  0.000000000000E+00  0.000000000000E+00  0.000000000000E+00  0.000000000000E+00
  0.000000000000E+00  0.000000000000E+00  0.000000000000E+00  0.000000000000E+00  0.000000000000E+00
  0.000000000000E+00  0.000000000000E+00  0.000000000000E+00  0.000000000000E+00  0.000000000000E+00
  0.000000000000E+00  0.000000000000E+00  0.000000000000E+00  0.000000000000E+00  0.000000000000E+00
  0.000000000000E+00  0.000000000000E+00  0.000000000000E+00  0.000000000000E+00  0.000000000000E+00
  0.000000000000E+00  0.000000000000E+00  0.000000000000E+00  0.000000000000E+00  0.000000000000E+00
  0.000000000000E+00  0.000000000000E+00  0.000000000000E+00  0.000000000000E+00  0.000000000000E+00
  0.000000000000E+00  0.000000000000E+00  0.000000000000E+00  0.000000000000E+00  0.000000000000E+00
  0.000000000000E+00  0.000000000000E+00  0.000000000000E+00  0.000000000000E+00  0.000000000000E+00
  0.000000000000E+00  0.000000000000E+00  0.000000000000E+00
 ae wavefunction
  0.535557091688E-08  0.584615313731E-08  0.637852560588E-08  0.695650990188E-08  0.758425806966E-08
  0.826628296352E-08  0.900749126720E-08  0.981321943545E-08  0.106892728289E-07  0.116419683367E-07
  0.126781808101E-07  0.138053936577E-07  0.150317539870E-07  0.163661327108E-07  0.178181900761E-07
  0.193984471160E-07  0.211183635701E-07  0.229904228701E-07  0.250282248424E-07  0.272465868402E-07
  0.296616540841E-07  0.322910200596E-07  0.351538579081E-07  0.382710638173E-07  0.416654135360E-07
  0.453617332175E-07  0.493870859270E-07  0.537709752659E-07  0.585455677009E-07  0.637459353370E-07
  0.694103210381E-07  0.755804279733E-07  0.823017358654E-07  0.896238464322E-07  0.976008607428E-07
  0.106291791472E-06  0.115761013312E-06  0.126078755111E-06  0.137321637645E-06  0.149573261296E-06
  0.162924848318E-06  0.177475944804E-06  0.193335187967E-06  0.210621144862E-06  0.229463229270E-06
  0.250002704090E-06  0.272393777285E-06  0.296804800196E-06  0.323419577861E-06  0.352438801893E-06
  0.384081617488E-06  0.418587337191E-06  0.456217315294E-06  0.497256998004E-06  0.542018166008E-06
  0.590841387576E-06  0.644098702118E-06  0.702196555950E-06  0.765579014125E-06  0.834731274405E-06
  0.910183511934E-06  0.992515085885E-06  0.108235914228E-05  0.118040765041E-05  0.128741691390E-05
  0.140421360116E-05  0.153170134434E-05  0.167086796055E-05  0.182279335389E-05  0.198865816276E-05
  0.216975322259E-05  0.236748992093E-05  0.258341152899E-05  0.281920560157E-05  0.307671754584E-05
  0.335796546909E-05  0.366515642535E-05  0.400070419242E-05  0.436724872277E-05  0.476767742515E-05
  0.520514844821E-05  0.568311615343E-05  0.620535898171E-05  0.677600993681E-05  0.739958992947E-05
  0.808104424819E-05  0.882578244692E-05  0.963972196661E-05  0.105293358361E-04  0.115017048290E-04
  0.125645744880E-04  0.137264174643E-04  0.149965016595E-04  0.163849647031E-04  0.179028953445E-04
  0.195624223888E-04  0.213768118647E-04  0.233605731707E-04  0.255295750111E-04  0.279011720074E-04
  0.304943429431E-04  0.333298416869E-04  0.364303619264E-04  0.398207169430E-04  0.435280357630E-04
  0.475819771314E-04  0.520149628805E-04  0.568624323912E-04  0.621631199907E-04  0.679593572794E-04
  0.742974025429E-04  0.812277995817E-04  0.888057684757E-04  0.970916310030E-04  0.106151273648E-03
  0.116056651359E-03  0.126886335465E-03  0.138726109418E-03  0.151669616304E-03  0.165819062360E-03
  0.181285981049E-03  0.198192062567E-03  0.216670054014E-03  0.236864735803E-03  0.258933980313E-03
  0.283049899130E-03  0.309400085698E-03  0.338188960608E-03  0.369639227210E-03  0.403993445724E-03
  0.441515734465E-03  0.482493607348E-03  0.527239957286E-03  0.576095195644E-03  0.629429558386E-03
  0.687645590092E-03  0.751180817488E-03  0.820510624623E-03  0.896151342294E-03  0.978663564722E-03
  0.106865570687E-02  0.116678781616E-02  0.127377565246E-02  0.139039505065E-02  0.151748657985E-02
  0.165596051347E-02  0.180680212419E-02  0.197107731733E-02  0.214993861572E-02  0.234463150834E-02
  0.255650117392E-02  0.278699958949E-02  0.303769303186E-02  0.331026997852E-02  0.360654941129E-02
  0.392848952375E-02  0.427819682947E-02  0.465793566433E-02  0.507013807132E-02  0.551741405083E-02
  0.600256215314E-02  0.652858038289E-02  0.709867737711E-02  0.771628380947E-02  0.838506396345E-02
  0.910892740557E-02  0.989204067778E-02  0.107388389141E-01  0.116540372718E-01  0.126426420508E-01
  0.137099613577E-01  0.148616151508E-01  0.161035444830E-01  0.174420197374E-01  0.188836476255E-01
  0.204353766956E-01  0.221045010695E-01  0.238986620988E-01  0.258258475984E-01  0.278943882798E-01
  0.301129509663E-01  0.324905281283E-01  0.350364232263E-01  0.377602313005E-01  0.406718142025E-01
  0.437812698293E-01  0.470988947065E-01  0.506351392785E-01  0.544005552905E-01  0.584057346962E-01
  0.626612395692E-01  0.671775225412E-01  0.719648373171E-01  0.770331388354E-01  0.823919726511E-01
  0.880503531126E-01  0.940166299146E-01  0.100298342634E+00  0.106902062923E+00  0.113833224164E+00
  0.121095938520E+00  0.128692801546E+00  0.136624684697E+00  0.144890516309E+00  0.153487051911E+00
  0.162408634977E+00  0.171646949572E+00  0.181190766697E+00  0.191025686496E+00  0.201133878916E+00
  0.211493825809E+00  0.222080067890E+00  0.232862960401E+00  0.243808441736E+00  0.254877819686E+00
  0.266027580327E+00  0.277209224893E+00  0.288369140281E+00  0.299448509020E+00  0.310383264636E+00
  0.321104098268E+00  0.331536521905E+00  0.341600992648E+00  0.351213100680E+00  0.360283821198E+00
  0.368719828083E+00  0.376423865638E+00  0.383295176381E+00  0.389229988971E+00  0.394122080834E+00
  0.397863441913E+00  0.400345073198E+00  0.401457947599E+00  0.401094136232E+00  0.399148068479E+00
  0.395517872648E+00  0.390106751761E+00  0.382824375213E+00  0.373588286893E+00  0.362325332185E+00
  0.348973096488E+00  0.333481337924E+00  0.315813392628E+00  0.295947532014E+00  0.273878254148E+00
  0.249617493161E+00  0.223195730212E+00  0.194662987235E+00  0.164089681222E+00  0.131567313011E+00
  0.972089612218E-01  0.611495499733E-01  0.235458591162E-01 -0.154237513525E-01 -0.555599253746E-01
 -0.966432190962E-01 -0.138435344127E+00 -0.180680758538E+00 -0.223108628582E+00 -0.265435190316E+00
 -0.307366500747E+00 -0.348601411819E+00 -0.388834295863E+00 -0.427756778333E+00 -0.465058000549E+00
 -0.500424206679E+00 -0.533540096848E+00 -0.564094053576E+00 -0.591785950498E+00 -0.616333933315E+00
 -0.637478529579E+00 -0.654985045120E+00 -0.668645509801E+00 -0.678280660905E+00 -0.683741884974E+00
 -0.684912828488E+00 -0.681710402222E+00 -0.674085030926E+00 -0.662020139554E+00 -0.645530959372E+00
 -0.624662775909E+00 -0.599488740379E+00 -0.570107351098E+00 -0.536639690199E+00 -0.499226480967E+00
 -0.458025014780E+00 -0.413205983051E+00 -0.364950242706E+00 -0.313445539145E+00 -0.258883212625E+00
 -0.201454915966E+00 -0.141349372843E+00 -0.787492042471E-01 -0.138278433941E-01  0.532534455006E-01
  0.122348422328E+00  0.193328547577E+00  0.266085373587E+00  0.340532496809E+00  0.416606938865E+00
  0.494269972877E+00  0.573507668106E+00  0.654331656650E+00  0.736780660310E+00  0.820923101616E+00
  0.906860813465E+00  0.994733629777E+00  0.108472460955E+01  0.117706574281E+01  0.127204411776E+01
  0.137000863647E+01  0.147137742353E+01  0.157664611941E+01  0.168639728726E+01  0.180131120941E+01
  0.000000000000E+00  0.000000000000E+00  0.000000000000E+00  0.000000000000E+00  0.000000000000E+00
  0.000000000000E+00  0.000000000000E+00  0.000000000000E+00  0.000000000000E+00  0.000000000000E+00
  0.000000000000E+00  0.000000000000E+00  0.000000000000E+00  0.000000000000E+00  0.000000000000E+00
  0.000000000000E+00  0.000000000000E+00  0.000000000000E+00  0.000000000000E+00  0.000000000000E+00
  0.000000000000E+00  0.000000000000E+00  0.000000000000E+00  0.000000000000E+00  0.000000000000E+00
  0.000000000000E+00  0.000000000000E+00  0.000000000000E+00  0.000000000000E+00  0.000000000000E+00
  0.000000000000E+00  0.000000000000E+00  0.000000000000E+00  0.000000000000E+00  0.000000000000E+00
  0.000000000000E+00  0.000000000000E+00  0.000000000000E+00  0.000000000000E+00  0.000000000000E+00
  0.000000000000E+00  0.000000000000E+00  0.000000000000E+00  0.000000000000E+00  0.000000000000E+00
  0.000000000000E+00  0.000000000000E+00  0.000000000000E+00
 End of Dataset
  PAW_PBE Pt 04Feb2005                   
   10.0000000000000     
 parameters from PSCTR are:
   VRHFIN =Pt: s1d9
   LEXCH  = PE
   EATOM  =   729.1176 eV,   53.5886 Ry

   TITEL  = PAW_PBE Pt 04Feb2005
   LULTRA =        F    use ultrasoft PP ?
   IUNSCR =        1    unscreen: 0-lin 1-nonlin 2-no
   RPACOR =    2.330    partial core radius
   POMASS =  195.080; ZVAL   =   10.000    mass and valenz
   RCORE  =    2.600    outmost cutoff radius
   RWIGS  =    2.750; RWIGS  =    1.455    wigner-seitz radius (au A)
   ENMAX  =  230.283; ENMIN  =  172.712 eV
   ICORE  =        3    local potential
   LCOR   =        T    correct aug charges
   LPAW   =        T    paw PP
   EAUG   =  358.966
   DEXC   =    0.000
   RMAX   =    2.658    core radius for proj-oper
   RAUG   =    1.300    factor for augmentation sphere
   RDEP   =    2.761    radius for radial grids
   RDEPT  =    2.203    core radius for aug-charge
 
   Atomic configuration
   16 entries
     n  l   j            E        occ.
     1  0  0.50    -78401.1885   2.0000
     2  0  0.50    -13770.7750   2.0000
     2  1  1.50    -11931.0468   6.0000
     3  0  0.50     -3234.7234   2.0000
     3  1  1.50     -2699.2216   6.0000
     3  2  2.50     -2119.5714  10.0000
     4  0  0.50      -695.1528   2.0000
     4  1  1.50      -519.6034   6.0000
     4  2  2.50      -306.6786  10.0000
     4  3  3.50       -70.1041  14.0000
     5  0  0.50      -101.7747   2.0000
     5  1  1.50       -55.9873   6.0000
     5  2  2.50        -6.1423   9.0000
     6  0  0.50        -5.6573   1.0000
     6  1  1.50        -6.8029   0.0000
     5  3  2.50        -1.3606   0.0000
   Description
     l       E           TYP  RCUT    TYP  RCUT
     2     -6.1423404     23  2.500
     2     -7.5029230     23  2.500
     0     -5.6573207     23  2.500
     0      0.7416693     23  2.500
     1     -2.7211652     23  2.600
     1     20.4087390     23  2.600
     3     -1.3605826     23  2.500
   Error from kinetic energy argument (eV)
   NDATA  =      100
   STEP   =   20.000   1.050
  199.      196.      194.      190.      188.      184.      180.      178.
  173.      168.      166.      161.      155.      150.      144.      138.
  133.      127.      121.      112.      107.      101.      92.5      87.0
  81.6      73.8      66.3      61.6      54.8      48.4      42.5      37.1
  32.1      27.6      23.5      19.9      15.7      13.0      9.97      8.06
  5.97      4.33      3.06      2.11      1.41     0.913     0.573     0.307
 0.183     0.101     0.659E-01 0.561E-01 0.534E-01 0.532E-01 0.504E-01 0.450E-01
 0.376E-01 0.279E-01 0.191E-01 0.124E-01 0.819E-02 0.607E-02 0.532E-02 0.519E-02
 0.511E-02 0.469E-02 0.391E-02 0.296E-02 0.199E-02 0.141E-02 0.110E-02 0.102E-02
 0.101E-02 0.948E-03 0.781E-03 0.594E-03 0.418E-03 0.321E-03 0.292E-03 0.288E-03
 0.263E-03 0.211E-03 0.155E-03 0.116E-03 0.105E-03 0.103E-03 0.922E-04 0.706E-04
 0.522E-04 0.450E-04 0.438E-04 0.398E-04 0.302E-04 0.233E-04 0.212E-04 0.204E-04
 0.167E-04 0.128E-04 0.112E-04 0.108E-04
END of PSCTR-controll parameters
 local part
   71.8095875659991     
  0.95058267E+02  0.95048370E+02  0.95034944E+02  0.95012597E+02  0.94981366E+02
  0.94941301E+02  0.94892449E+02  0.94834854E+02  0.94768549E+02  0.94693548E+02
  0.94609844E+02  0.94517406E+02  0.94416179E+02  0.94306085E+02  0.94187027E+02
  0.94058889E+02  0.93921545E+02  0.93774857E+02  0.93618684E+02  0.93452878E+02
  0.93277288E+02  0.93091760E+02  0.92896133E+02  0.92690244E+02  0.92473919E+02
  0.92246975E+02  0.92009220E+02  0.91760449E+02  0.91500448E+02  0.91228991E+02
  0.90945845E+02  0.90650766E+02  0.90343504E+02  0.90023806E+02  0.89691410E+02
  0.89346053E+02  0.88987470E+02  0.88615391E+02  0.88229547E+02  0.87829669E+02
  0.87415485E+02  0.86986729E+02  0.86543137E+02  0.86084449E+02  0.85610416E+02
  0.85120795E+02  0.84615358E+02  0.84093888E+02  0.83556186E+02  0.83002070E+02
  0.82431377E+02  0.81843964E+02  0.81239713E+02  0.80618528E+02  0.79980341E+02
  0.79325110E+02  0.78652824E+02  0.77963501E+02  0.77257194E+02  0.76533991E+02
  0.75794015E+02  0.75037427E+02  0.74264426E+02  0.73475252E+02  0.72670184E+02
  0.71849542E+02  0.71013686E+02  0.70163018E+02  0.69297982E+02  0.68419062E+02
  0.67526784E+02  0.66621714E+02  0.65704460E+02  0.64775667E+02  0.63836021E+02
  0.62886245E+02  0.61927097E+02  0.60959371E+02  0.59983891E+02  0.59001515E+02
  0.58013125E+02  0.57019632E+02  0.56021969E+02  0.55021090E+02  0.54017967E+02
  0.53013588E+02  0.52008952E+02  0.51005071E+02  0.50002959E+02  0.49003636E+02
  0.48008120E+02  0.47017427E+02  0.46032565E+02  0.45054532E+02  0.44084312E+02
  0.43122872E+02  0.42171158E+02  0.41230094E+02  0.40300578E+02  0.39383475E+02
  0.38479622E+02  0.37589819E+02  0.36714828E+02  0.35855372E+02  0.35012130E+02
  0.34185738E+02  0.33376784E+02  0.32585808E+02  0.31813300E+02  0.31059698E+02
  0.30325388E+02  0.29610703E+02  0.28915922E+02  0.28241269E+02  0.27586915E+02
  0.26952974E+02  0.26339510E+02  0.25746529E+02  0.25173987E+02  0.24621788E+02
  0.24089784E+02  0.23577777E+02  0.23085523E+02  0.22612731E+02  0.22159067E+02
  0.21724154E+02  0.21307575E+02  0.20908879E+02  0.20527578E+02  0.20163152E+02
  0.19815055E+02  0.19482712E+02  0.19165526E+02  0.18862880E+02  0.18574141E+02
  0.18298659E+02  0.18035775E+02  0.17784822E+02  0.17545129E+02  0.17316022E+02
  0.17096828E+02  0.16886879E+02  0.16685514E+02  0.16492081E+02  0.16305940E+02
  0.16126465E+02  0.15953048E+02  0.15785099E+02  0.15622050E+02  0.15463354E+02
  0.15308490E+02  0.15156963E+02  0.15008304E+02  0.14862073E+02  0.14717861E+02
  0.14575288E+02  0.14434004E+02  0.14293693E+02  0.14154067E+02  0.14014871E+02
  0.13875882E+02  0.13736906E+02  0.13597782E+02  0.13458377E+02  0.13318586E+02
  0.13178335E+02  0.13037575E+02  0.12896283E+02  0.12754460E+02  0.12612133E+02
  0.12469348E+02  0.12326171E+02  0.12182687E+02  0.12038997E+02  0.11895219E+02
  0.11751481E+02  0.11607925E+02  0.11464699E+02  0.11321963E+02  0.11179879E+02
  0.11038617E+02  0.10898345E+02  0.10759236E+02  0.10621460E+02  0.10485185E+02
  0.10350574E+02  0.10217788E+02  0.10086977E+02  0.99582860E+01  0.98318508E+01
  0.97077968E+01  0.95862388E+01  0.94672801E+01  0.93510120E+01  0.92375131E+01
  0.91268486E+01  0.90190707E+01  0.89142176E+01  0.88123142E+01  0.87133712E+01
  0.86173862E+01  0.85243431E+01  0.84342131E+01  0.83469546E+01  0.82625142E+01
  0.81808270E+01  0.81018174E+01  0.80253998E+01  0.79514796E+01  0.78799537E+01
  0.78107116E+01  0.77436363E+01  0.76786053E+01  0.76154915E+01  0.75541639E+01
  0.74944892E+01  0.74363324E+01  0.73795579E+01  0.73240303E+01  0.72696157E+01
  0.72161823E+01  0.71636013E+01  0.71117481E+01  0.70605023E+01  0.70097493E+01
  0.69593802E+01  0.69092929E+01  0.68593923E+01  0.68095910E+01  0.67598094E+01
  0.67099766E+01  0.66600299E+01  0.66099157E+01  0.65595892E+01  0.65090144E+01
  0.64581644E+01  0.64070210E+01  0.63555747E+01  0.63038244E+01  0.62517768E+01
  0.61994468E+01  0.61468562E+01  0.60940340E+01  0.60410153E+01  0.59878415E+01
  0.59345589E+01  0.58812189E+01  0.58278770E+01  0.57745920E+01  0.57214258E+01
  0.56684425E+01  0.56157076E+01  0.55632875E+01  0.55112492E+01  0.54596588E+01
  0.54085819E+01  0.53580821E+01  0.53082213E+01  0.52590586E+01  0.52106498E+01
  0.51630476E+01  0.51163003E+01  0.50704520E+01  0.50255422E+01  0.49816053E+01
  0.49386705E+01  0.48967616E+01  0.48558968E+01  0.48160889E+01  0.47773446E+01
  0.47396654E+01  0.47030468E+01  0.46674793E+01  0.46329476E+01  0.45994315E+01
  0.45669059E+01  0.45353411E+01  0.45047028E+01  0.44749529E+01  0.44460494E+01
  0.44179471E+01  0.43905980E+01  0.43639513E+01  0.43379544E+01  0.43125530E+01
  0.42876916E+01  0.42633141E+01  0.42393639E+01  0.42157849E+01  0.41925214E+01
  0.41695187E+01  0.41467235E+01  0.41240843E+01  0.41015518E+01  0.40790790E+01
  0.40566218E+01  0.40341391E+01  0.40115933E+01  0.39889501E+01  0.39661791E+01
  0.39432538E+01  0.39201516E+01  0.38968541E+01  0.38733470E+01  0.38496202E+01
  0.38256676E+01  0.38014874E+01  0.37770814E+01  0.37524556E+01  0.37276196E+01
  0.37025864E+01  0.36773727E+01  0.36519980E+01  0.36264848E+01  0.36008582E+01
  0.35751459E+01  0.35493772E+01  0.35235835E+01  0.34977974E+01  0.34720527E+01
  0.34463839E+01  0.34208259E+01  0.33954137E+01  0.33701822E+01  0.33451657E+01
  0.33203979E+01  0.32959111E+01  0.32717365E+01  0.32479037E+01  0.32244402E+01
  0.32013716E+01  0.31787213E+01  0.31565100E+01  0.31347561E+01  0.31134750E+01
  0.30926793E+01  0.30723788E+01  0.30525803E+01  0.30332877E+01  0.30145018E+01
  0.29962206E+01  0.29784392E+01  0.29611498E+01  0.29443420E+01  0.29280027E+01
  0.29121164E+01  0.28966653E+01  0.28816293E+01  0.28669866E+01  0.28527136E+01
  0.28387849E+01  0.28251743E+01  0.28118541E+01  0.27987960E+01  0.27859712E+01
  0.27733504E+01  0.27609041E+01  0.27486033E+01  0.27364190E+01  0.27243230E+01
  0.27122877E+01  0.27002868E+01  0.26882948E+01  0.26762880E+01  0.26642439E+01
  0.26521420E+01  0.26399636E+01  0.26276918E+01  0.26153120E+01  0.26028116E+01
  0.25901802E+01  0.25774097E+01  0.25644943E+01  0.25514304E+01  0.25382165E+01
  0.25248537E+01  0.25113448E+01  0.24976951E+01  0.24839117E+01  0.24700037E+01
  0.24559818E+01  0.24418586E+01  0.24276483E+01  0.24133661E+01  0.23990288E+01
  0.23846539E+01  0.23702601E+01  0.23558663E+01  0.23414924E+01  0.23271583E+01
  0.23128840E+01  0.22986898E+01  0.22845954E+01  0.22706202E+01  0.22567833E+01
  0.22431027E+01  0.22295958E+01  0.22162789E+01  0.22031671E+01  0.21902742E+01
  0.21776127E+01  0.21651935E+01  0.21530263E+01  0.21411187E+01  0.21294771E+01
  0.21181058E+01  0.21070078E+01  0.20961840E+01  0.20856340E+01  0.20753554E+01
  0.20653443E+01  0.20555953E+01  0.20461012E+01  0.20368537E+01  0.20278427E+01
  0.20190574E+01  0.20104852E+01  0.20021131E+01  0.19939267E+01  0.19859111E+01
  0.19780507E+01  0.19703294E+01  0.19627307E+01  0.19552378E+01  0.19478341E+01
  0.19405026E+01  0.19332270E+01  0.19259909E+01  0.19187784E+01  0.19115745E+01
  0.19043645E+01  0.18971348E+01  0.18898725E+01  0.18825658E+01  0.18752040E+01
  0.18677775E+01  0.18602780E+01  0.18526983E+01  0.18450326E+01  0.18372764E+01
  0.18294265E+01  0.18214811E+01  0.18134397E+01  0.18053030E+01  0.17970732E+01
  0.17887535E+01  0.17803484E+01  0.17718637E+01  0.17633060E+01  0.17546831E+01
  0.17460035E+01  0.17372766E+01  0.17285125E+01  0.17197219E+01  0.17109160E+01
  0.17021064E+01  0.16933049E+01  0.16845236E+01  0.16757747E+01  0.16670701E+01
  0.16584219E+01  0.16498417E+01  0.16413409E+01  0.16329303E+01  0.16246202E+01
  0.16164205E+01  0.16083400E+01  0.16003870E+01  0.15925689E+01  0.15848920E+01
  0.15773621E+01  0.15699836E+01  0.15627600E+01  0.15556941E+01  0.15487871E+01
  0.15420398E+01  0.15354514E+01  0.15290205E+01  0.15227445E+01  0.15166198E+01
  0.15106421E+01  0.15048061E+01  0.14991056E+01  0.14935338E+01  0.14880832E+01
  0.14827457E+01  0.14775125E+01  0.14723747E+01  0.14673226E+01  0.14623467E+01
  0.14574369E+01  0.14525832E+01  0.14477755E+01  0.14430038E+01  0.14382581E+01
  0.14335288E+01  0.14288065E+01  0.14240823E+01  0.14193476E+01  0.14145943E+01
  0.14098151E+01  0.14050032E+01  0.14001524E+01  0.13952574E+01  0.13903134E+01
  0.13853166E+01  0.13802638E+01  0.13751529E+01  0.13699823E+01  0.13647514E+01
  0.13594603E+01  0.13541101E+01  0.13487024E+01  0.13432397E+01  0.13377254E+01
  0.13321631E+01  0.13265575E+01  0.13209136E+01  0.13152370E+01  0.13095337E+01
  0.13038102E+01  0.12980733E+01  0.12923300E+01  0.12865875E+01  0.12808533E+01
  0.12751348E+01  0.12694394E+01  0.12637746E+01  0.12581477E+01  0.12525656E+01
  0.12470353E+01  0.12415632E+01  0.12361553E+01  0.12308175E+01  0.12255548E+01
  0.12203721E+01  0.12152735E+01  0.12102625E+01  0.12053423E+01  0.12005150E+01
  0.11957826E+01  0.11911461E+01  0.11866060E+01  0.11821622E+01  0.11778137E+01
  0.11735593E+01  0.11693968E+01  0.11653237E+01  0.11613369E+01  0.11574326E+01
  0.11536067E+01  0.11498548E+01  0.11461718E+01  0.11425525E+01  0.11389913E+01
  0.11354825E+01  0.11320201E+01  0.11285979E+01  0.11252098E+01  0.11218496E+01
  0.11185111E+01  0.11151882E+01  0.11118750E+01  0.11085656E+01  0.11052546E+01
  0.11019366E+01  0.10986069E+01  0.10952607E+01  0.10918939E+01  0.10885029E+01
  0.10850842E+01  0.10816350E+01  0.10781530E+01  0.10746364E+01  0.10710837E+01
  0.10674942E+01  0.10638675E+01  0.10602038E+01  0.10565038E+01  0.10527686E+01
  0.10490000E+01  0.10452000E+01  0.10413711E+01  0.10375162E+01  0.10336385E+01
  0.10297417E+01  0.10258295E+01  0.10219059E+01  0.10179754E+01  0.10140424E+01
  0.10101113E+01  0.10061869E+01  0.10022738E+01  0.99837665E+00  0.99450014E+00
  0.99064874E+00  0.98682684E+00  0.98303863E+00  0.97928811E+00  0.97557900E+00
  0.97191476E+00  0.96829853E+00  0.96473315E+00  0.96122107E+00  0.95776440E+00
  0.95436485E+00  0.95102374E+00  0.94774201E+00  0.94452015E+00  0.94135828E+00
  0.93825610E+00  0.93521290E+00  0.93222758E+00  0.92929868E+00  0.92642437E+00
  0.92360249E+00  0.92083056E+00  0.91810582E+00  0.91542527E+00  0.91278565E+00
  0.91018355E+00  0.90761535E+00  0.90507734E+00  0.90256568E+00  0.90007648E+00
  0.89760583E+00  0.89514981E+00  0.89270455E+00  0.89026627E+00  0.88783126E+00
  0.88539601E+00  0.88295714E+00  0.88051149E+00  0.87805614E+00  0.87558838E+00
  0.87310581E+00  0.87060630E+00  0.86808801E+00  0.86554942E+00  0.86298932E+00
  0.86040685E+00  0.85780144E+00  0.85517290E+00  0.85252134E+00  0.84984719E+00
  0.84715123E+00  0.84443452E+00  0.84169841E+00  0.83894454E+00  0.83617479E+00
  0.83339127E+00  0.83059630E+00  0.82779239E+00  0.82498217E+00  0.82216846E+00
  0.81935413E+00  0.81654215E+00  0.81373555E+00  0.81093736E+00  0.80815060E+00
  0.80537828E+00  0.80262332E+00  0.79988854E+00  0.79717667E+00  0.79449026E+00
  0.79183172E+00  0.78920324E+00  0.78660682E+00  0.78404424E+00  0.78151705E+00
  0.77902652E+00  0.77657371E+00  0.77415937E+00  0.77178402E+00  0.76944789E+00
  0.76715094E+00  0.76489286E+00  0.76267307E+00  0.76049074E+00  0.75834479E+00
  0.75623389E+00  0.75415650E+00  0.75211088E+00  0.75009510E+00  0.74810707E+00
  0.74614454E+00  0.74420517E+00  0.74228649E+00  0.74038598E+00  0.73850103E+00
  0.73662903E+00  0.73476736E+00  0.73291339E+00  0.73106455E+00  0.72921833E+00
  0.72737231E+00  0.72552418E+00  0.72367175E+00  0.72181300E+00  0.71994605E+00
  0.71806922E+00  0.71618102E+00  0.71428015E+00  0.71236555E+00  0.71043636E+00
  0.70849193E+00  0.70653187E+00  0.70455599E+00  0.70256436E+00  0.70055724E+00
  0.69853516E+00  0.69649882E+00  0.69444916E+00  0.69238730E+00  0.69031454E+00
  0.68823237E+00  0.68614240E+00  0.68404638E+00  0.68194619E+00  0.67984380E+00
  0.67774124E+00  0.67564060E+00  0.67354403E+00  0.67145368E+00  0.66937169E+00
  0.66730020E+00  0.66524128E+00  0.66319697E+00  0.66116918E+00  0.65915977E+00
  0.65717044E+00  0.65520278E+00  0.65325821E+00  0.65133801E+00  0.64944326E+00
  0.64757489E+00  0.64573362E+00  0.64392000E+00  0.64213436E+00  0.64037686E+00
  0.63864743E+00  0.63694584E+00  0.63527163E+00  0.63362417E+00  0.63200264E+00
  0.63040605E+00  0.62883323E+00  0.62728288E+00  0.62575354E+00  0.62424364E+00
  0.62275150E+00  0.62127535E+00  0.61981334E+00  0.61836358E+00  0.61692411E+00
  0.61549299E+00  0.61406824E+00  0.61264790E+00  0.61123005E+00  0.60981282E+00
  0.60839438E+00  0.60697300E+00  0.60554707E+00  0.60411505E+00  0.60267555E+00
  0.60122733E+00  0.59976929E+00  0.59830048E+00  0.59682011E+00  0.59532758E+00
  0.59382246E+00  0.59230448E+00  0.59077356E+00  0.58922978E+00  0.58767342E+00
  0.58610492E+00  0.58452488E+00  0.58293407E+00  0.58133341E+00  0.57972398E+00
  0.57810696E+00  0.57648367E+00  0.57485553E+00  0.57322405E+00  0.57159081E+00
  0.56995746E+00  0.56832568E+00  0.56669719E+00  0.56507371E+00  0.56345696E+00
  0.56184865E+00  0.56025046E+00  0.55866399E+00  0.55709081E+00  0.55553238E+00
  0.55399009E+00  0.55246520E+00  0.55095886E+00  0.54947209E+00  0.54800577E+00
  0.54656063E+00  0.54513725E+00  0.54373604E+00  0.54235728E+00  0.54100106E+00
  0.53966732E+00  0.53835585E+00  0.53706627E+00  0.53579803E+00  0.53455047E+00
  0.53332274E+00  0.53211388E+00  0.53092280E+00  0.52974829E+00  0.52858903E+00
  0.52744363E+00  0.52631059E+00  0.52518837E+00  0.52407539E+00  0.52297000E+00
  0.52187057E+00  0.52077545E+00  0.51968297E+00  0.51859154E+00  0.51749955E+00
  0.51640549E+00  0.51530788E+00  0.51420534E+00  0.51309657E+00  0.51198039E+00
  0.51085571E+00  0.50972159E+00  0.50857721E+00  0.50742190E+00  0.50625511E+00
  0.50507646E+00  0.50388570E+00  0.50268276E+00  0.50146769E+00  0.50024070E+00
  0.49900216E+00  0.49775255E+00  0.49649253E+00  0.49522287E+00  0.49394447E+00
  0.49265834E+00  0.49136562E+00  0.49006750E+00  0.48876531E+00  0.48746040E+00
  0.48615421E+00  0.48484820E+00  0.48354388E+00  0.48224276E+00  0.48094635E+00
  0.47965617E+00  0.47837369E+00  0.47710037E+00  0.47583759E+00  0.47458669E+00
  0.47334892E+00  0.47212544E+00  0.47091733E+00  0.46972555E+00  0.46855092E+00
  0.46739418E+00  0.46625589E+00  0.46513652E+00  0.46403637E+00  0.46295561E+00
  0.46189426E+00  0.46085223E+00  0.45982924E+00  0.45882491E+00  0.45783872E+00
  0.45687000E+00  0.45591798E+00  0.45498176E+00  0.45406033E+00  0.45315258E+00
  0.45225733E+00  0.45137329E+00  0.45049912E+00  0.44963345E+00  0.44877483E+00
  0.44792181E+00  0.44707292E+00  0.44622669E+00  0.44538165E+00  0.44453635E+00
  0.44368941E+00  0.44283946E+00  0.44198521E+00  0.44112544E+00  0.44025900E+00
  0.43938485E+00  0.43850205E+00  0.43760977E+00  0.43670728E+00  0.43579400E+00
  0.43486947E+00  0.43393336E+00  0.43298547E+00  0.43202573E+00  0.43105422E+00
  0.43007113E+00  0.42907680E+00  0.42807169E+00  0.42705639E+00  0.42603159E+00
  0.42499811E+00  0.42395688E+00  0.42290889E+00  0.42185526E+00  0.42079715E+00
  0.41973579E+00  0.41867249E+00  0.41760855E+00  0.41654534E+00  0.41548423E+00
  0.41442658E+00  0.41337376E+00  0.41232712E+00  0.41128796E+00  0.41025756E+00
  0.40923712E+00  0.40822780E+00  0.40723065E+00  0.40624667E+00  0.40527674E+00
  0.40432165E+00  0.40338207E+00  0.40245855E+00  0.40155153E+00  0.40066134E+00
  0.39978815E+00  0.39893203E+00  0.39809292E+00  0.39727063E+00  0.39646484E+00
  0.39567511E+00  0.39490091E+00  0.39414157E+00  0.39339630E+00  0.39266425E+00
  0.39194445E+00  0.39123585E+00  0.39053735E+00  0.38984775E+00  0.38916584E+00
  0.38849034E+00  0.38781994E+00  0.38715335E+00  0.38648922E+00  0.38582625E+00
  0.38516314E+00  0.38449861E+00  0.38383143E+00  0.38316040E+00  0.38248442E+00
  0.38180242E+00  0.38111341E+00  0.38041653E+00  0.37971096E+00  0.37899602E+00
  0.37827113E+00  0.37753580E+00  0.37678969E+00  0.37603256E+00  0.37526428E+00
  0.37448486E+00  0.37369440E+00  0.37289315E+00  0.37208146E+00  0.37125978E+00
  0.37042868E+00  0.36958884E+00  0.36874102E+00  0.36788608E+00  0.36702496E+00
  0.36615865E+00  0.36528824E+00  0.36441485E+00  0.36353963E+00  0.36266378E+00
  0.36178852E+00  0.36091506E+00  0.36004463E+00  0.35917845E+00  0.35831770E+00
  0.35746353E+00  0.35661708E+00  0.35577938E+00  0.35495146E+00  0.35413424E+00
  0.35332856E+00  0.35253520E+00  0.35175482E+00  0.35098800E+00  0.35023521E+00
 gradient corrections used for XC
           5
 core charge-density (partial)
  0.23304379E+01  0.23294300E+01  0.23264091E+01  0.23213823E+01  0.23143620E+01
  0.23053654E+01  0.22944143E+01  0.22815353E+01  0.22667596E+01  0.22501227E+01
  0.22316648E+01  0.22114298E+01  0.21894659E+01  0.21658249E+01  0.21405623E+01
  0.21137371E+01  0.20854113E+01  0.20556498E+01  0.20245203E+01  0.19920930E+01
  0.19584401E+01  0.19236359E+01  0.18877562E+01  0.18508782E+01  0.18130805E+01
  0.17744422E+01  0.17350431E+01  0.16949636E+01  0.16542837E+01  0.16130837E+01
  0.15714431E+01  0.15294410E+01  0.14871554E+01  0.14446632E+01  0.14020402E+01
  0.13593605E+01  0.13166963E+01  0.12741182E+01  0.12316946E+01  0.11894917E+01
  0.11475731E+01  0.11060003E+01  0.10648319E+01  0.10241239E+01  0.98392934E+00
  0.94429857E+00  0.90527888E+00  0.86691460E+00  0.82924699E+00  0.79231428E+00
  0.75615162E+00  0.72079107E+00  0.68626165E+00  0.65258932E+00  0.61979704E+00
  0.58790479E+00  0.55692964E+00  0.52688579E+00  0.49778467E+00  0.46963495E+00
  0.44244272E+00  0.41621146E+00  0.39094224E+00  0.36663376E+00  0.34328245E+00
  0.32088261E+00  0.29942650E+00  0.27890445E+00  0.25930497E+00  0.24061488E+00
  0.22281942E+00  0.20590236E+00  0.18984614E+00  0.17463195E+00  0.16023986E+00
  0.14664897E+00  0.13383744E+00  0.12178270E+00  0.11046148E+00  0.99849944E-01
  0.89923786E-01  0.80658336E-01  0.72028649E-01  0.64009593E-01  0.56575942E-01
  0.49702452E-01  0.43363945E-01  0.37535380E-01  0.32191927E-01  0.27309025E-01
  0.22862452E-01  0.18828376E-01  0.15183408E-01  0.11904652E-01  0.89697435E-02
  0.63568962E-02  0.40449303E-02  0.20133060E-02  0.24215009E-03 -0.12877215E-02
 -0.25947845E-02 -0.36967913E-02 -0.46107587E-02 -0.53529595E-02 -0.59389175E-02
 -0.63834049E-02 -0.67004436E-02 -0.69033079E-02 -0.70045311E-02 -0.70159135E-02
 -0.69485329E-02 -0.68127578E-02 -0.66182612E-02 -0.63740374E-02 -0.60884193E-02
 -0.57690979E-02 -0.54231425E-02 -0.50570222E-02 -0.46766279E-02 -0.42872961E-02
 -0.38938320E-02 -0.35005339E-02 -0.31112181E-02 -0.27292433E-02 -0.23575356E-02
 -0.19986138E-02 -0.16546139E-02 -0.13273139E-02 -0.10181579E-02 -0.72828054E-03
 -0.45853028E-03 -0.20949235E-03  0.18488714E-04  0.22528735E-03  0.41097586E-03
  0.57580414E-03  0.72018009E-03  0.84465096E-03  0.94988541E-03  0.10366566E-02
  0.11058260E-02  0.11583284E-02  0.11951571E-02  0.12173514E-02  0.12259832E-02
  0.12221461E-02  0.12069444E-02  0.11814835E-02  0.11468610E-02  0.11041582E-02
  0.10544337E-02  0.99871610E-03  0.93799880E-03  0.87323500E-03  0.80533346E-03
  0.73515494E-03  0.66350940E-03  0.59115364E-03  0.51878970E-03  0.44706365E-03
  0.37656496E-03  0.30782637E-03  0.24132410E-03  0.17747854E-03  0.11665528E-03
  0.59166441E-04  0.52723389E-05 -0.44816637E-04 -0.90937884E-04 -0.13297427E-03
 -0.17085163E-03 -0.20453619E-03 -0.23403179E-03 -0.25937712E-03 -0.28064286E-03
 -0.29792874E-03 -0.31136073E-03 -0.32108808E-03 -0.32728051E-03 -0.33012542E-03
 -0.32982510E-03 -0.32659414E-03 -0.32065683E-03 -0.31224471E-03 -0.30159425E-03
 -0.28894462E-03 -0.27453561E-03 -0.25860565E-03 -0.24139008E-03 -0.22311941E-03
 -0.20401786E-03 -0.18430195E-03 -0.16417934E-03 -0.14384771E-03 -0.12349387E-03
 -0.10329293E-03 -0.83407732E-04 -0.63988273E-04 -0.45171363E-04 -0.27080359E-04
 -0.98250307E-05  0.64984639E-05  0.21807498E-04  0.36032797E-04  0.49118172E-04
  0.61020165E-04  0.71707624E-04  0.81161207E-04  0.89372828E-04  0.96345048E-04
  0.10209043E-03  0.10663083E-03  0.10999670E-03  0.11222635E-03  0.11336516E-03
  0.11346483E-03  0.11258260E-03  0.11078051E-03  0.10812458E-03  0.10468411E-03
  0.10053094E-03  0.95738712E-04  0.90382227E-04  0.84536758E-04  0.78277446E-04
  0.71678707E-04  0.64813689E-04  0.57753759E-04  0.50568040E-04  0.43322985E-04
  0.36081995E-04  0.28905087E-04  0.21848592E-04  0.14964917E-04  0.83023273E-05
  0.19047937E-05 -0.41881363E-05 -0.99414171E-05 -0.15324549E-04 -0.20311584E-04
 -0.24881096E-04 -0.29016118E-04 -0.32704050E-04 -0.35936537E-04 -0.38709318E-04
 -0.41022058E-04 -0.42878150E-04 -0.44284506E-04 -0.45251325E-04 -0.45791854E-04
 -0.45922129E-04 -0.45660718E-04 -0.45028445E-04 -0.44048122E-04 -0.42744271E-04
 -0.41142848E-04 -0.39270972E-04 -0.37156653E-04 -0.34828535E-04 -0.32315633E-04
 -0.29647094E-04 -0.26851958E-04 -0.23958936E-04 -0.20996198E-04 -0.17991180E-04
 -0.14970399E-04 -0.11959287E-04 -0.89820450E-05 -0.60615030E-05 -0.32190077E-05
 -0.47432018E-06  0.21544676E-05  0.46509996E-05  0.70007065E-05  0.91908404E-05
  0.11210494E-04  0.13050604E-04  0.14703942E-04  0.16165090E-04  0.17430404E-04
  0.18497964E-04  0.19367515E-04  0.20040397E-04  0.20519466E-04  0.20809006E-04
  0.20914633E-04  0.20843195E-04  0.20602667E-04  0.20202039E-04  0.19651204E-04
  0.18960841E-04  0.18142299E-04  0.17207480E-04  0.16168722E-04  0.15038686E-04
  0.13830240E-04  0.12556354E-04  0.11229991E-04  0.98640042E-05  0.84710454E-05
  0.70634703E-05  0.56532549E-05  0.42519168E-05  0.28704432E-05  0.15192262E-05
  0.20800483E-06 -0.10541849E-05 -0.22590534E-05 -0.33990926E-05 -0.44676042E-05
 -0.54587203E-05 -0.63674169E-05 -0.71895206E-05 -0.79217077E-05 -0.85614980E-05
 -0.91072410E-05 -0.95580975E-05 -0.99140147E-05 -0.10175697E-04 -0.10344570E-04
 -0.10422744E-04 -0.10412973E-04 -0.10318602E-04 -0.10143527E-04 -0.98921388E-05
 -0.95692706E-05 -0.91801454E-05 -0.87303191E-05 -0.82256255E-05 -0.76721198E-05
 -0.70760237E-05 -0.64436697E-05 -0.57814484E-05 -0.50957557E-05 -0.43929428E-05
 -0.36792682E-05 -0.29608519E-05 -0.22436323E-05 -0.15333266E-05 -0.83539405E-06
 -0.15500182E-06  0.50300447E-06  0.11341275E-05  0.17342411E-05  0.22996094E-05
  0.28269026E-05  0.33132083E-05  0.37560403E-05  0.41533428E-05  0.45034916E-05
  0.48052919E-05  0.50579731E-05  0.52611796E-05  0.54149600E-05  0.55197524E-05
  0.55763680E-05  0.55859719E-05  0.55500620E-05  0.54704460E-05  0.53492170E-05
  0.51887271E-05  0.49915610E-05  0.47605072E-05  0.44985300E-05  0.42087402E-05
  0.38943661E-05  0.35587241E-05  0.32051900E-05  0.28371708E-05  0.24580768E-05
  0.20712948E-05  0.16801627E-05  0.12879446E-05  0.89780811E-06  0.51280216E-06
  0.13583744E-06 -0.23033208E-06 -0.58312567E-06 -0.92015042E-06 -0.12392140E-05
 -0.15383354E-05 -0.18157537E-05 -0.20699349E-05 -0.22995767E-05 -0.25036114E-05
 -0.26812069E-05 -0.28317659E-05 -0.29549231E-05 -0.30505407E-05 -0.31187030E-05
 -0.31597080E-05 -0.31740593E-05 -0.31624553E-05 -0.31257777E-05 -0.30650794E-05
 -0.29815709E-05 -0.28766057E-05 -0.27516658E-05 -0.26083459E-05 -0.24483379E-05
 -0.22734142E-05 -0.20854119E-05 -0.18862164E-05 -0.16777449E-05 -0.14619310E-05
 -0.12407087E-05 -0.10159973E-05 -0.78968707E-06 -0.56362509E-06 -0.33960226E-06
 -0.11934091E-06  0.95516694E-07  0.30341876E-06  0.50291351E-06  0.69265758E-06
  0.87142334E-06  0.10381052E-05  0.11917246E-05  0.13314342E-05  0.14565205E-05
  0.15664055E-05  0.16606478E-05  0.17389415E-05  0.18011152E-05  0.18471295E-05
  0.18770732E-05  0.18911594E-05  0.18897198E-05  0.18731995E-05  0.18421496E-05
  0.17972205E-05  0.17391536E-05  0.16687732E-05  0.15869777E-05  0.14947307E-05
  0.13930512E-05  0.12830046E-05  0.11656928E-05  0.10422449E-05  0.91380718E-06
  0.78153398E-06  0.64657846E-06  0.51008351E-06  0.37317319E-06  0.23694442E-06
  0.10245916E-06 -0.29262973E-07 -0.15725146E-06 -0.28059119E-06 -0.39842811E-06
 -0.50997427E-06 -0.61451218E-06 -0.71139856E-06 -0.80006739E-06 -0.88003228E-06
 -0.95088814E-06 -0.10123122E-05 -0.10640644E-05 -0.11059871E-05 -0.11380040E-05
 -0.11601188E-05 -0.11724129E-05 -0.11750430E-05 -0.11682377E-05 -0.11522936E-05
 -0.11275720E-05 -0.10944936E-05 -0.10535341E-05 -0.10052190E-05 -0.95011822E-06
 -0.88884038E-06 -0.82202724E-06 -0.75034777E-06 -0.67449220E-06 -0.59516614E-06
 -0.51308466E-06 -0.42896644E-06 -0.34352813E-06 -0.25747874E-06 -0.17151432E-06
 -0.86312879E-07 -0.25294889E-08  0.79208222E-07  0.15830430E-06  0.23419832E-06
  0.30636889E-06  0.37433677E-06  0.43766754E-06  0.49597391E-06  0.54891757E-06
  0.59621064E-06  0.63761668E-06  0.67295128E-06  0.70208221E-06  0.72492922E-06
  0.74146336E-06  0.75170599E-06  0.75572737E-06  0.75364499E-06  0.74562141E-06
  0.73186202E-06  0.71261232E-06  0.68815507E-06  0.65880723E-06  0.62491661E-06
  0.58685843E-06  0.54503180E-06  0.49985593E-06  0.45176647E-06  0.40121171E-06
  0.34864871E-06  0.29453962E-06  0.23934788E-06  0.18353460E-06  0.12755504E-06
  0.71855134E-07  0.16868264E-07 -0.36987836E-07 -0.89313986E-07 -0.13973224E-06
 -0.18788835E-06 -0.23345399E-06 -0.27612872E-06 -0.31564166E-06 -0.35175298E-06
 -0.38425503E-06 -0.41297323E-06 -0.43776668E-06 -0.45852849E-06 -0.47518584E-06
 -0.48769978E-06 -0.49606478E-06 -0.50030799E-06 -0.50048831E-06 -0.49669521E-06
 -0.48904734E-06 -0.47769097E-06 -0.46279820E-06 -0.44456504E-06 -0.42320940E-06
 -0.39896881E-06 -0.37209821E-06 -0.34286753E-06 -0.31155929E-06 -0.27846604E-06
 -0.24388795E-06 -0.20813023E-06 -0.17150065E-06 -0.13430712E-06 -0.96855212E-07
 -0.59445902E-07 -0.22373263E-07  0.14077654E-07  0.49632856E-07  0.84031308E-07
  0.11702669E-06  0.14838900E-06  0.17790599E-06  0.20538448E-06  0.23065139E-06
  0.25355471E-06  0.27396424E-06  0.29177210E-06  0.30689311E-06  0.31926502E-06
  0.32884843E-06  0.33562665E-06  0.33960538E-06  0.34081214E-06  0.33929561E-06
  0.33512483E-06  0.32838818E-06  0.31919236E-06  0.30766109E-06  0.29393384E-06
  0.27816440E-06  0.26051937E-06  0.24117662E-06  0.22032364E-06  0.19815586E-06
  0.17487503E-06  0.15068742E-06  0.12580220E-06  0.10042970E-06  0.74779761E-07
  0.49060085E-07  0.23474690E-07 -0.17776315E-08 -0.26504748E-07 -0.50522557E-07
 -0.73656256E-07 -0.95741524E-07 -0.11662558E-06 -0.13616816E-06 -0.15424235E-06
 -0.17073529E-06 -0.18554880E-06 -0.19859985E-06 -0.20982087E-06 -0.21916001E-06
 -0.22658121E-06 -0.23206416E-06 -0.23560415E-06 -0.23721181E-06 -0.23691271E-06
 -0.23474684E-06 -0.23076806E-06 -0.22504337E-06 -0.21765215E-06 -0.20868528E-06
 -0.19824418E-06 -0.18643989E-06 -0.17339193E-06 -0.15922723E-06 -0.14407902E-06
 -0.12808563E-06 -0.11138933E-06 -0.94135144E-07 -0.76469640E-07 -0.58539790E-07
 -0.40491793E-07 -0.22469953E-07 -0.46155921E-08  0.12934001E-07  0.30046562E-07
  0.46595786E-07  0.62462203E-07  0.77533976E-07  0.91707633E-07  0.10488871E-06
  0.11699232E-06  0.12794364E-06  0.13767828E-06  0.14614262E-06  0.15329401E-06
  0.15910089E-06  0.16354283E-06  0.16661048E-06  0.16830546E-06  0.16864009E-06
  0.16763713E-06  0.16532940E-06  0.16175934E-06  0.15697848E-06  0.15104690E-06
  0.14403255E-06  0.13601064E-06  0.12706287E-06  0.11727667E-06  0.10674446E-06
  0.95562774E-07  0.83831474E-07  0.71652891E-07  0.59130984E-07  0.46370498E-07
  0.33476135E-07  0.20551730E-07  0.76994627E-08 -0.49809120E-08 -0.17392801E-07
 -0.29443466E-07 -0.41044682E-07 -0.52113341E-07 -0.62572009E-07 -0.72349430E-07
 -0.81380969E-07 -0.89608996E-07 -0.96983215E-07 -0.10346092E-06 -0.10900720E-06
 -0.11359505E-06 -0.11720547E-06 -0.11982746E-06 -0.12145796E-06 -0.12210172E-06
 -0.12177114E-06 -0.12048606E-06 -0.11827340E-06 -0.11516692E-06 -0.11120675E-06
 -0.10643903E-06 -0.10091541E-06 -0.94692531E-07 -0.87831548E-07 -0.80397532E-07
 -0.72458908E-07 -0.64086859E-07 -0.55354722E-07 -0.46337382E-07 -0.37110652E-07
 -0.27750672E-07 -0.18333308E-07 -0.89335585E-08  0.37500897E-09  0.95208118E-08
  0.18434776E-07  0.27050832E-07  0.35306379E-07  0.43142716E-07  0.50505430E-07
  0.57344749E-07  0.63615854E-07  0.69279138E-07  0.74300433E-07  0.78651181E-07
  0.82308560E-07  0.85255569E-07  0.87481058E-07  0.88979718E-07  0.89752023E-07
  0.89804128E-07  0.89147729E-07  0.87799871E-07  0.85782731E-07  0.83123358E-07
  0.79853375E-07  0.76008662E-07  0.71629001E-07  0.66757699E-07  0.61441196E-07
  0.55728644E-07  0.49671481E-07  0.43322993E-07  0.36737863E-07  0.29971725E-07
  0.23080711E-07  0.16121004E-07  0.91484029E-08  0.22178865E-08 -0.46167973E-08
 -0.11303533E-07 -0.17792219E-07 -0.24035123E-07 -0.29987217E-07 -0.35606486E-07
 -0.40854208E-07 -0.45695199E-07 -0.50098031E-07 -0.54035221E-07 -0.57483375E-07
 -0.60423311E-07 -0.62840133E-07 -0.64723287E-07 -0.66066565E-07 -0.66868090E-07
 -0.67130256E-07 -0.66859643E-07 -0.66066899E-07 -0.64766591E-07 -0.62977027E-07
 -0.60720054E-07 -0.58020833E-07 -0.54907587E-07 -0.51411333E-07 -0.47565594E-07
 -0.43406099E-07 -0.38970468E-07 -0.34297889E-07 -0.29428787E-07 -0.24404487E-07
 -0.19266879E-07 -0.14058081E-07 -0.88201071E-08 -0.35945409E-08  0.15777837E-08
  0.66570884E-08  0.11604945E-07  0.16384555E-07  0.20961011E-07  0.25301540E-07
  0.29375725E-07  0.33155710E-07  0.36616371E-07  0.39735477E-07  0.42493813E-07
  0.44875289E-07  0.46867011E-07  0.48459338E-07  0.49645905E-07  0.50423620E-07
  0.50792643E-07  0.50756330E-07  0.50321159E-07  0.49496635E-07  0.48295164E-07
  0.46731916E-07  0.44824661E-07  0.42593596E-07  0.40061142E-07  0.37251744E-07
  0.34191643E-07  0.30908645E-07  0.27431884E-07  0.23791568E-07  0.20018733E-07
  0.16144984E-07  0.12202241E-07  0.82224834E-08  0.42375030E-08  0.27865485E-09
 -0.36233798E-08 -0.74388230E-08 -0.11139019E-07 -0.14696643E-07 -0.18085892E-07
 -0.21282665E-07 -0.24264727E-07 -0.27011855E-07 -0.29505962E-07 -0.31731213E-07
 -0.33674110E-07 -0.35323567E-07 -0.36670957E-07 -0.37710146E-07 -0.38437505E-07
 -0.38851896E-07 -0.38954653E-07 -0.38749527E-07 -0.38242625E-07 -0.37442329E-07
 -0.36359196E-07 -0.35005841E-07 -0.33396814E-07 -0.31548453E-07 -0.29478734E-07
 -0.27207104E-07 -0.24754311E-07 -0.22142218E-07 -0.19393622E-07 -0.16532059E-07
 -0.13581608E-07 -0.10566699E-07 -0.75119148E-08 -0.44417971E-08 -0.13806551E-08
  0.16476207E-08  0.46197393E-08  0.75131823E-08  0.10306369E-07  0.12978812E-07
  0.15511260E-07  0.17885834E-07  0.20086143E-07  0.22097395E-07  0.23906485E-07
  0.25502080E-07  0.26874677E-07  0.28016654E-07  0.28922301E-07  0.29587839E-07
  0.30011423E-07  0.30193128E-07  0.30134922E-07  0.29840621E-07  0.29315839E-07
  0.28567916E-07  0.27605833E-07  0.26440126E-07  0.25082776E-07  0.23547097E-07
  0.21847615E-07  0.19999937E-07  0.18020612E-07  0.15926991E-07  0.13737079E-07
  0.11469385E-07  0.91427730E-08  0.67763060E-08  0.43890969E-08  0.20001576E-08
 -0.37174802E-09 -0.27082475E-08 -0.49914975E-08 -0.72043166E-08 -0.93303097E-08
 -0.11353986E-07 -0.13260867E-07 -0.15037588E-07 -0.16671982E-07 -0.18153165E-07
 -0.19471599E-07 -0.20619150E-07 -0.21589133E-07 -0.22376343E-07 -0.22977076E-07
 -0.23389139E-07 -0.23611844E-07 -0.23645996E-07 -0.23493866E-07 -0.23159150E-07
 -0.22646927E-07 -0.21963595E-07 -0.21116806E-07 -0.20115390E-07 -0.18969269E-07
 -0.17689364E-07 -0.16287499E-07 -0.14776294E-07 -0.13169058E-07 -0.11479671E-07
 -0.97224766E-08 -0.79121548E-08 -0.60636083E-08 -0.41918411E-08 -0.23118405E-08
 -0.43845981E-09  0.14136956E-08  0.32303794E-08  0.49978107E-08  0.67027755E-08
  0.83327229E-08  0.98758540E-08  0.11321204E-07  0.12658719E-07  0.13879318E-07
  0.14974958E-07  0.15938674E-07  0.16764630E-07  0.17448142E-07  0.17985702E-07
  0.18374990E-07  0.18614878E-07  0.18705422E-07  0.18647845E-07  0.18444515E-07
  0.18098910E-07  0.17615576E-07  0.17000081E-07  0.16258952E-07  0.15399619E-07
  0.14430339E-07  0.13360125E-07  0.12198663E-07  0.10956232E-07  0.96436088E-08
  0.82719853E-08  0.68528704E-08  0.53979982E-08  0.39192329E-08  0.24284746E-08
  0.93756542E-09 -0.54180158E-09 -0.19981725E-08 -0.34204187E-08 -0.47978201E-08
 -0.61201430E-08 -0.73777146E-08 -0.85614914E-08 -0.96631213E-08 -0.10675001E-07
 -0.11590326E-07 -0.12403131E-07 -0.13108332E-07 -0.13701748E-07 -0.14180127E-07
 -0.14541158E-07 -0.14783477E-07 -0.14906666E-07 -0.14911248E-07 -0.14798663E-07
 -0.14571254E-07 -0.14232231E-07 -0.13785641E-07 -0.13236320E-07 -0.12589848E-07
 -0.11852499E-07 -0.11031177E-07 -0.10133361E-07 -0.91670343E-08 -0.81406192E-08
 -0.70629035E-08 -0.59429687E-08 -0.47901148E-08 -0.36137852E-08 -0.24234907E-08
 -0.12287352E-08 -0.38940346E-10  0.11366260E-08  0.22889210E-08  0.34091945E-08
  0.44890540E-08  0.55205254E-08  0.64961111E-08  0.74088417E-08  0.82523251E-08
  0.90207886E-08  0.97091169E-08  0.10312884E-07  0.10828380E-07  0.11252629E-07
  0.11583409E-07  0.11819252E-07  0.11959454E-07  0.12004067E-07  0.11953891E-07
  0.11810459E-07  0.11576013E-07  0.11253484E-07  0.10846454E-07  0.10359126E-07
 kinetic energy density (partial)
  0.19763515E+03  0.19755060E+03  0.19729715E+03  0.19687541E+03  0.19628640E+03
  0.19553153E+03  0.19461261E+03  0.19353185E+03  0.19229182E+03  0.19089546E+03
  0.18934608E+03  0.18764734E+03  0.18580321E+03  0.18381799E+03  0.18169628E+03
  0.17944296E+03  0.17706316E+03  0.17456229E+03  0.17194595E+03  0.16921996E+03
  0.16639032E+03  0.16346320E+03  0.16044492E+03  0.15734188E+03  0.15416063E+03
  0.15090775E+03  0.14758991E+03  0.14421378E+03  0.14078607E+03  0.13731346E+03
  0.13380262E+03  0.13026014E+03  0.12669256E+03  0.12310634E+03  0.11950782E+03
  0.11590322E+03  0.11229861E+03  0.10869994E+03  0.10511297E+03  0.10154326E+03
  0.97996214E+02  0.94477009E+02  0.90990616E+02  0.87541778E+02  0.84135011E+02
  0.80774593E+02  0.77464556E+02  0.74208687E+02  0.71010520E+02  0.67873338E+02
  0.64800164E+02  0.61793769E+02  0.58856668E+02  0.55991122E+02  0.53199138E+02
  0.50482476E+02  0.47842652E+02  0.45280941E+02  0.42798381E+02  0.40395783E+02
  0.38073734E+02  0.35832605E+02  0.33672561E+02  0.31593564E+02  0.29595384E+02
  0.27677611E+02  0.25839656E+02  0.24080768E+02  0.22400039E+02  0.20796416E+02
  0.19268707E+02  0.17815596E+02  0.16435648E+02  0.15127320E+02  0.13888973E+02
  0.12718878E+02  0.11615228E+02  0.10576146E+02  0.95996954E+01  0.86838860E+01
  0.78266858E+01  0.70260275E+01  0.62798174E+01  0.55859424E+01  0.49422782E+01
  0.43466959E+01  0.37970689E+01  0.32912796E+01  0.28272249E+01  0.24028225E+01
  0.20160157E+01  0.16647788E+01  0.13471212E+01  0.10610922E+01  0.80478440E+00
  0.57633723E+00  0.37394028E+00  0.19583589E+00  0.40321691E-01 -0.94247375E-01
 -0.20945725E+00 -0.30683329E+00 -0.38783915E+00 -0.45387590E+00 -0.50628143E+00
 -0.54633017E+00 -0.57523296E+00 -0.59413730E+00 -0.60412770E+00 -0.60622629E+00
 -0.60139361E+00 -0.59052965E+00 -0.57447493E+00 -0.55401186E+00 -0.52986612E+00
 -0.50270831E+00 -0.47315554E+00 -0.44177328E+00 -0.40907715E+00 -0.37553491E+00
 -0.34156843E+00 -0.30755572E+00 -0.27383300E+00 -0.24069684E+00 -0.20840623E+00
 -0.17718474E+00 -0.14722261E+00 -0.11867886E+00 -0.91683405E-01 -0.66339069E-01
 -0.42723635E-01 -0.20891818E-01 -0.87719366E-03  0.17305919E-01  0.33660637E-01
  0.48205751E-01  0.60974038E-01  0.72010629E-01  0.81371459E-01  0.89121787E-01
  0.95334791E-01  0.10009024E+00  0.10347325E+00  0.10557310E+00  0.10648216E+00
  0.10629483E+00  0.10510667E+00  0.10301348E+00  0.10011053E+00  0.96491867E-01
  0.92249627E-01  0.87473509E-01  0.82250242E-01  0.76663154E-01  0.70791788E-01
  0.64711588E-01  0.58493634E-01  0.52204437E-01  0.45905776E-01  0.39654593E-01
  0.33502926E-01  0.27497886E-01  0.21681673E-01  0.16091621E-01  0.10760288E-01
  0.57155610E-02  0.98079560E-03 -0.34250228E-02 -0.74870988E-02 -0.11194629E-01
 -0.14540587E-01 -0.17521502E-01 -0.20137218E-01 -0.22390656E-01 -0.24287564E-01
 -0.25836264E-01 -0.27047406E-01 -0.27933710E-01 -0.28509721E-01 -0.28791563E-01
 -0.28796701E-01 -0.28543706E-01 -0.28052031E-01 -0.27341796E-01 -0.26433583E-01
 -0.25348238E-01 -0.24106691E-01 -0.22729778E-01 -0.21238088E-01 -0.19651813E-01
 -0.17990611E-01 -0.16273490E-01 -0.14518694E-01 -0.12743613E-01 -0.10964695E-01
 -0.91973788E-02 -0.74560358E-02 -0.57539221E-02 -0.41031449E-02 -0.25146381E-02
 -0.99814864E-03  0.43776654E-03  0.17857354E-02  0.30395564E-02  0.41941758E-02
  0.52456583E-02  0.61911505E-02  0.70288386E-02  0.77579001E-02  0.83784518E-02
  0.88914929E-02  0.92988453E-02  0.96030909E-02  0.98075066E-02  0.99159986E-02
  0.99330342E-02  0.98635752E-02  0.97130096E-02  0.94870851E-02  0.91918431E-02
  0.88335545E-02  0.84186571E-02  0.79536952E-02  0.74452624E-02  0.68999463E-02
  0.63242768E-02  0.57246779E-02  0.51074225E-02  0.44785907E-02  0.38440329E-02
  0.32093351E-02  0.25797894E-02  0.19603678E-02  0.13556995E-02  0.77005285E-03
  0.20732040E-03 -0.32899225E-03 -0.83577398E-03 -0.13103122E-02 -0.17502939E-02
 -0.21538032E-02 -0.25193162E-02 -0.28456934E-02 -0.31321687E-02 -0.33783370E-02
 -0.35841392E-02 -0.37498453E-02 -0.38760360E-02 -0.39635825E-02 -0.40136255E-02
 -0.40275531E-02 -0.40069774E-02 -0.39537111E-02 -0.38697436E-02 -0.37572163E-02
 -0.36183992E-02 -0.34556660E-02 -0.32714711E-02 -0.30683261E-02 -0.28487776E-02
 -0.26153850E-02 -0.23707004E-02 -0.21172482E-02 -0.18575071E-02 -0.15938923E-02
 -0.13287396E-02 -0.10642905E-02 -0.80267921E-03 -0.54592054E-03 -0.29589945E-03
 -0.54362155E-04  0.17709130E-03  0.39701313E-03  0.60411234E-03  0.79725787E-03
  0.97548043E-03  0.11379729E-02  0.12840896E-02  0.14133442E-02  0.15254065E-02
  0.16200985E-02  0.16973889E-02  0.17573870E-02  0.18003360E-02  0.18266052E-02
  0.18366817E-02  0.18311614E-02  0.18107400E-02  0.17762032E-02  0.17284165E-02
  0.16683155E-02  0.15968950E-02  0.15151994E-02  0.14243119E-02  0.13253447E-02
  0.12194288E-02  0.11077046E-02  0.99131262E-03  0.87138409E-03  0.74903292E-03
  0.62534744E-03  0.50138294E-03  0.37815472E-03  0.25663172E-03  0.13773075E-03
  0.22311435E-04 -0.88828311E-04 -0.19495608E-03 -0.29540812E-03 -0.38959187E-03
 -0.47698778E-03 -0.55715056E-03 -0.62970975E-03 -0.69436976E-03 -0.75090926E-03
 -0.79918005E-03 -0.83910542E-03 -0.87067802E-03 -0.89395725E-03 -0.90906625E-03
 -0.91618855E-03 -0.91556429E-03 -0.90748626E-03 -0.89229557E-03 -0.87037722E-03
 -0.84215540E-03 -0.80808871E-03 -0.76866532E-03 -0.72439802E-03 -0.67581930E-03
 -0.62347644E-03 -0.56792673E-03 -0.50973265E-03 -0.44945735E-03 -0.38766018E-03
 -0.32489245E-03 -0.26169340E-03 -0.19858641E-03 -0.13607545E-03 -0.74641867E-04
 -0.14741384E-04  0.43198543E-04  0.98781077E-04  0.15164202E-03  0.20145153E-03
  0.24791548E-03  0.29077652E-03  0.32981481E-03  0.36484843E-03  0.39573350E-03
  0.42236397E-03  0.44467118E-03  0.46262305E-03  0.47622316E-03  0.48550942E-03
  0.49055266E-03  0.49145492E-03  0.48834762E-03  0.48138952E-03  0.47076456E-03
  0.45667957E-03  0.43936189E-03  0.41905690E-03  0.39602549E-03  0.37054153E-03
  0.34288926E-03  0.31336075E-03  0.28225333E-03  0.24986712E-03  0.21650256E-03
  0.18245807E-03  0.14802777E-03  0.11349933E-03  0.79151892E-04  0.45254211E-04
  0.12062853E-04 -0.20179412E-04 -0.51245064E-04 -0.80923130E-04 -0.10902031E-03
 -0.13536191E-03 -0.15979264E-03 -0.18217721E-03 -0.20240076E-03 -0.22036908E-03
 -0.23600876E-03 -0.24926707E-03 -0.26011173E-03 -0.26853056E-03 -0.27453089E-03
 -0.27813897E-03 -0.27939911E-03 -0.27837284E-03 -0.27513785E-03 -0.26978692E-03
 -0.26242669E-03 -0.25317649E-03 -0.24216690E-03 -0.22953849E-03 -0.21544036E-03
 -0.20002876E-03 -0.18346559E-03 -0.16591703E-03 -0.14755208E-03 -0.12854114E-03
 -0.10905468E-03 -0.89261845E-04 -0.69329233E-04 -0.49419623E-04 -0.29690836E-04
 -0.10294639E-04  0.86242634E-05  0.26929151E-04  0.44492125E-04  0.61194852E-04
  0.76929213E-04  0.91597846E-04  0.10511461E-03  0.11740490E-03  0.12840596E-03
  0.13806697E-03  0.14634914E-03  0.15322565E-03  0.15868153E-03  0.16271344E-03
  0.16532935E-03  0.16654819E-03  0.16639934E-03  0.16492217E-03  0.16216540E-03
  0.15818648E-03  0.15305091E-03  0.14683145E-03  0.13960741E-03  0.13146383E-03
  0.12249062E-03  0.11278178E-03  0.10243451E-03  0.91548380E-04  0.80224477E-04
  0.68564586E-04  0.56670364E-04  0.44642554E-04  0.32580221E-04  0.20580024E-04
  0.87355238E-05 -0.28634630E-05 -0.14131466E-04 -0.24987911E-04 -0.35357621E-04
 -0.45171255E-04 -0.54365701E-04 -0.62884394E-04 -0.70677592E-04 -0.77702581E-04
 -0.83923820E-04 -0.89313035E-04 -0.93849242E-04 -0.97518726E-04 -0.10031495E-03
 -0.10223843E-03 -0.10329652E-03 -0.10350322E-03 -0.10287886E-03 -0.10144977E-03
 -0.99247953E-04 -0.96310662E-04 -0.92679983E-04 -0.88402379E-04 -0.83528215E-04
 -0.78111266E-04 -0.72208206E-04 -0.65878095E-04 -0.59181856E-04 -0.52181747E-04
 -0.44940849E-04 -0.37522543E-04 -0.29990014E-04 -0.22405760E-04 -0.14831120E-04
 -0.73258224E-05  0.52436921E-07  0.72483988E-05  0.14209610E-04  0.20886765E-04
  0.27234010E-04  0.33209219E-04  0.38774231E-04  0.43895046E-04  0.48541993E-04
  0.52689856E-04  0.56317955E-04  0.59410206E-04  0.61955127E-04  0.63945821E-04
  0.65379913E-04  0.66259463E-04  0.66590843E-04  0.66384579E-04  0.65655173E-04
  0.64420891E-04  0.62703529E-04  0.60528164E-04  0.57922871E-04  0.54918441E-04
  0.51548067E-04  0.47847035E-04  0.43852394E-04  0.39602626E-04  0.35137313E-04
  0.30496798E-04  0.25721856E-04  0.20853363E-04  0.15931976E-04  0.10997816E-04
  0.60901737E-05  0.12472160E-05 -0.34942828E-05 -0.80991971E-05 -0.12534286E-04
 -0.16768409E-04 -0.20772723E-04 -0.24520852E-04 -0.27989037E-04 -0.31156262E-04
 -0.34004358E-04 -0.36518074E-04 -0.38685136E-04 -0.40496269E-04 -0.41945207E-04
 -0.43028671E-04 -0.43746324E-04 -0.44100715E-04 -0.44097184E-04 -0.43743766E-04
 -0.43051065E-04 -0.42032109E-04 -0.40702200E-04 -0.39078744E-04 -0.37181060E-04
 -0.35030196E-04 -0.32648720E-04 -0.30060514E-04 -0.27290554E-04 -0.24364695E-04
 -0.21309447E-04 -0.18151752E-04 -0.14918770E-04 -0.11637655E-04 -0.83353481E-05
 -0.50383678E-05 -0.17726150E-05  0.14368171E-05  0.45658217E-05  0.75914448E-05
  0.10492040E-04  0.13247410E-04  0.15838930E-04  0.18249665E-04  0.20464460E-04
  0.22470023E-04  0.24254990E-04  0.25809969E-04  0.27127576E-04  0.28202446E-04
  0.29031233E-04  0.29612594E-04  0.29947157E-04  0.30037475E-04  0.29887961E-04
  0.29504823E-04  0.28895967E-04  0.28070910E-04  0.27040664E-04  0.25817622E-04
  0.24415432E-04  0.22848866E-04  0.21133677E-04  0.19286459E-04  0.17324497E-04
  0.15265623E-04  0.13128058E-04  0.10930269E-04  0.86908115E-05  0.64281917E-05
  0.41607161E-05  0.19063555E-05 -0.31738910E-06 -0.24936135E-05 -0.46061306E-05
 -0.66395816E-05 -0.85795398E-05 -0.10412604E-04 -0.12126483E-04 -0.13710068E-04
 -0.15153497E-04 -0.16448205E-04 -0.17586968E-04 -0.18563927E-04 -0.19374613E-04
 -0.20015949E-04 -0.20486248E-04 -0.20785199E-04 -0.20913842E-04 -0.20874532E-04
 -0.20670895E-04 -0.20307774E-04 -0.19791169E-04 -0.19128164E-04 -0.18326854E-04
 -0.17396260E-04 -0.16346238E-04 -0.15187390E-04 -0.13930964E-04 -0.12588754E-04
 -0.11172997E-04 -0.96962689E-05 -0.81713801E-05 -0.66112699E-05 -0.50289039E-05
 -0.34371712E-05 -0.18487863E-05 -0.27619206E-06  0.12685315E-05  0.27737550E-05
  0.42283819E-05  0.56219247E-05  0.69445754E-05  0.81872693E-05  0.93417413E-05
  0.10400576E-04  0.11357247E-04  0.12206155E-04  0.12942652E-04  0.13563057E-04
  0.14064671E-04  0.14445777E-04  0.14705636E-04  0.14844471E-04  0.14863454E-04
  0.14764671E-04  0.14551097E-04  0.14226547E-04  0.13795638E-04  0.13263734E-04
  0.12636894E-04  0.11921805E-04  0.11125725E-04  0.10256411E-04  0.93220547E-05
  0.83312027E-05  0.72926895E-05  0.62155605E-05  0.51089983E-05  0.39822477E-05
  0.28445430E-05  0.17050356E-05  0.57272431E-06 -0.54361234E-06 -0.16354806E-05
 -0.26947329E-05 -0.37136248E-05 -0.46848686E-05 -0.56016818E-05 -0.64578310E-05
 -0.72476708E-05 -0.79661771E-05 -0.86089754E-05 -0.91723630E-05 -0.96533265E-05
 -0.10049552E-04 -0.10359432E-04 -0.10582064E-04 -0.10717245E-04 -0.10765463E-04
 -0.10727878E-04 -0.10606302E-04 -0.10403173E-04 -0.10121527E-04 -0.97649595E-05
 -0.93375923E-05 -0.88440284E-05 -0.82893094E-05 -0.76788678E-05 -0.70184776E-05
 -0.63142037E-05 -0.55723490E-05 -0.47994010E-05 -0.40019782E-05 -0.31867756E-05
 -0.23605118E-05 -0.15298753E-05 -0.70147322E-06  0.11821901E-06  0.92290598E-06
  0.17065184E-05  0.24632566E-05  0.31876313E-05  0.38745010E-05  0.45191062E-05
  0.51171003E-05  0.56645762E-05  0.61580895E-05  0.65946772E-05  0.69718733E-05
  0.72877189E-05  0.75407693E-05  0.77300964E-05  0.78552874E-05  0.79164389E-05
  0.79141481E-05  0.78494992E-05  0.77240469E-05  0.75397963E-05  0.72991800E-05
  0.70050313E-05  0.66605557E-05  0.62692998E-05  0.58351175E-05  0.53621349E-05
  0.48547137E-05  0.43174130E-05  0.37549505E-05  0.31721628E-05  0.25739659E-05
  0.19653154E-05  0.13511670E-05  0.73643776E-06  0.12596863E-06 -0.47551248E-06
 -0.10634257E-05 -0.16333724E-05 -0.21811667E-05 -0.27028650E-05 -0.31947922E-05
 -0.36535665E-05 -0.40761210E-05 -0.44597224E-05 -0.48019870E-05 -0.51008937E-05
 -0.53547939E-05 -0.55624183E-05 -0.57228807E-05 -0.58356787E-05 -0.59006917E-05
 -0.59181753E-05 -0.58887535E-05 -0.58134079E-05 -0.56934641E-05 -0.55305762E-05
 -0.53267083E-05 -0.50841142E-05 -0.48053154E-05 -0.44930769E-05 -0.41503820E-05
 -0.37804051E-05 -0.33864841E-05 -0.29720920E-05 -0.25408071E-05 -0.20962835E-05
 -0.16422218E-05 -0.11823389E-05 -0.72033880E-06 -0.25988418E-06  0.19543192E-06
  0.64211295E-06  0.10767847E-05  0.14962196E-05  0.18973601E-05  0.22773393E-05
  0.26335007E-05  0.29634160E-05  0.32648998E-05  0.35360235E-05  0.37751264E-05
  0.39808241E-05  0.41520152E-05  0.42878861E-05  0.43879119E-05  0.44518570E-05
  0.44797719E-05  0.44719889E-05  0.44291144E-05  0.43520211E-05  0.42418359E-05
  0.40999281E-05  0.39278947E-05  0.37275441E-05  0.35008795E-05  0.32500796E-05
  0.29774793E-05  0.26855488E-05  0.23768725E-05  0.20541270E-05  0.17200587E-05
  0.13774614E-05  0.10291536E-05  0.67795619E-06  0.32667054E-06 -0.21943419E-07
 -0.36518797E-06 -0.70044778E-06 -0.10252091E-05 -0.13370780E-05 -0.16337971E-05
 -0.19132613E-05 -0.21735320E-05 -0.24128497E-05 -0.26296452E-05 -0.28225488E-05
 -0.29903984E-05 -0.31322453E-05 -0.32473584E-05 -0.33352268E-05 -0.33955607E-05
 -0.34282902E-05 -0.34335626E-05 -0.34117381E-05 -0.33633842E-05 -0.32892676E-05
 -0.31903458E-05 -0.30677565E-05 -0.29228066E-05 -0.27569586E-05 -0.25718180E-05
 -0.23691178E-05 -0.21507035E-05 -0.19185171E-05 -0.16745802E-05 -0.14209775E-05
 -0.11598391E-05 -0.89332355E-06 -0.62360054E-06 -0.35283356E-06 -0.83163289E-07
  0.18330891E-06  0.44453681E-06  0.69854454E-06  0.94344102E-06  0.11774335E-05
  0.13988404E-05  0.16061022E-05  0.17977930E-05  0.19726285E-05  0.21294752E-05
  0.22673561E-05  0.23854570E-05  0.24831298E-05  0.25598959E-05  0.26154470E-05
  0.26496454E-05  0.26625225E-05  0.26542764E-05  0.26252680E-05  0.25760154E-05
  0.25071883E-05  0.24196003E-05  0.23142007E-05  0.21920648E-05  0.20543842E-05
  0.19024558E-05  0.17376698E-05  0.15614979E-05  0.13754806E-05  0.11812141E-05
  0.98033737E-06  0.77451814E-06  0.56544002E-06  0.35478891E-06  0.14423977E-06
 -0.64556272E-07 -0.26998453E-06 -0.47047886E-06 -0.66453324E-06 -0.85071275E-06
 -0.10276638E-05 -0.11941234E-05 -0.13489284E-05 -0.14910223E-05 -0.16194629E-05
 -0.17334276E-05 -0.18322185E-05 -0.19152660E-05 -0.19821313E-05 -0.20325086E-05
 -0.20662253E-05 -0.20832415E-05 -0.20836488E-05 -0.20676676E-05 -0.20356437E-05
 -0.19880439E-05 -0.19254507E-05 -0.18485562E-05 -0.17581555E-05 -0.16551384E-05
 -0.15404820E-05 -0.14152412E-05 -0.12805400E-05 -0.11375613E-05 -0.98753722E-06
 -0.83173859E-06 -0.67146460E-06 -0.50803226E-06 -0.34276584E-06 -0.17698646E-06
 -0.12001742E-07  0.15090416E-06  0.31048036E-06  0.46551852E-06  0.61486178E-06
  0.75741309E-06  0.89214303E-06  0.10180969E-05  0.11344015E-05  0.12402702E-05
  0.13350088E-05  0.14180191E-05  0.14888028E-05  0.15469637E-05  0.15922096E-05
  0.16243534E-05  0.16433129E-05  0.16491104E-05  0.16418708E-05  0.16218196E-05
  0.15892798E-05  0.15446679E-05  0.14884897E-05  0.14213348E-05  0.13438716E-05
  0.12568402E-05  0.11610465E-05  0.10573543E-05  0.94667853E-06  0.82997683E-06
  0.70824191E-06  0.58249314E-06  0.45376833E-06  0.32311534E-06  0.19158378E-06
  0.60216756E-07 -0.69957176E-07 -0.19793188E-06 -0.32273123E-06 -0.44341632E-06
 -0.55909241E-06 -0.66891527E-06 -0.77209722E-06 -0.86791252E-06 -0.95570229E-06
 -0.10348788E-05 -0.11049292E-05 -0.11654186E-05 -0.12159924E-05 -0.12563780E-05
 -0.12863862E-05 -0.13059115E-05 -0.13149315E-05 -0.13135067E-05 -0.13017785E-05
 -0.12799672E-05 -0.12483693E-05 -0.12073544E-05 -0.11573611E-05 -0.10988931E-05
 -0.10325139E-05 -0.95884221E-06 -0.87854617E-06 -0.79233747E-06 -0.70096533E-06
 -0.60521017E-06 -0.50587713E-06 -0.40378943E-06 -0.29978174E-06 -0.19469351E-06
 -0.89362340E-07  0.15382535E-07  0.11872664E-06  0.21987645E-06  0.31806532E-06
  0.41255916E-06  0.50266178E-06  0.58771989E-06  0.66712763E-06  0.74033079E-06
  0.80683048E-06  0.86618637E-06  0.91801943E-06  0.96201413E-06  0.99792015E-06
  0.10255535E-05  0.10447974E-05  0.10556018E-05  0.10579838E-05  0.10520260E-05
  0.10378752E-05  0.10157409E-05  0.98589249E-06  0.94865645E-06  0.90441331E-06
 atomic pseudo charge-density
  0.10000000E+02  0.99901054E+01  0.99605062E+01  0.99114550E+01  0.98433666E+01
  0.97568100E+01  0.96524962E+01  0.95312650E+01  0.93940683E+01  0.92419531E+01
  0.90760430E+01  0.88975196E+01  0.87076042E+01  0.85075402E+01  0.82985763E+01
  0.80819517E+01  0.78588820E+01  0.76305480E+01  0.73980856E+01  0.71625776E+01
  0.69250473E+01  0.66864544E+01  0.64476913E+01  0.62095816E+01  0.59728799E+01
  0.57382718E+01  0.55063756E+01  0.52777444E+01  0.50528684E+01  0.48321784E+01
  0.46160486E+01  0.44048004E+01  0.41987058E+01  0.39979912E+01  0.38028407E+01
  0.36133995E+01  0.34297778E+01  0.32520532E+01  0.30802744E+01  0.29144636E+01
  0.27546194E+01  0.26007192E+01  0.24527218E+01  0.23105690E+01  0.21741881E+01
  0.20434934E+01  0.19183880E+01  0.17987653E+01  0.16845104E+01  0.15755013E+01
  0.14716102E+01  0.13727045E+01  0.12786474E+01  0.11892996E+01  0.11045192E+01
  0.10241627E+01  0.94808594E+00  0.87614419E+00  0.80819294E+00  0.74408827E+00
  0.68368728E+00  0.62684836E+00  0.57343161E+00  0.52329904E+00  0.47631484E+00
  0.43234558E+00  0.39126038E+00  0.35293110E+00  0.31723241E+00  0.28404196E+00
  0.25324044E+00  0.22471163E+00  0.19834252E+00  0.17402327E+00  0.15164732E+00
  0.13111135E+00  0.11231532E+00  0.95162439E-01  0.79559200E-01  0.65415323E-01
  0.52643751E-01  0.41160619E-01  0.30885217E-01  0.21739953E-01  0.13650309E-01
  0.65447990E-02  0.35491327E-03 -0.49849292E-02 -0.95374379E-02 -0.13362507E-01
 -0.16517273E-01 -0.19056180E-01 -0.21031034E-01 -0.22491073E-01 -0.23483029E-01
 -0.24051190E-01 -0.24237471E-01 -0.24081475E-01 -0.23620566E-01 -0.22889927E-01
 -0.21922637E-01 -0.20749732E-01 -0.19400271E-01 -0.17901410E-01 -0.16278460E-01
 -0.14554960E-01 -0.12752740E-01 -0.10891986E-01 -0.89913066E-02 -0.70677957E-02
 -0.51370968E-02 -0.32134657E-02 -0.13098318E-02  0.56214039E-03  0.23919915E-02
  0.41704081E-02  0.58891648E-02  0.75410676E-02  0.91198977E-02  0.10620357E-01
  0.12038016E-01  0.13369259E-01  0.14611235E-01  0.15761811E-01  0.16819517E-01
  0.17783506E-01  0.18653503E-01  0.19429766E-01  0.20113041E-01  0.20704519E-01
  0.21205800E-01  0.21618850E-01  0.21945971E-01  0.22189758E-01  0.22353070E-01
  0.22438997E-01  0.22450825E-01  0.22392013E-01  0.22266158E-01  0.22076975E-01
  0.21828266E-01  0.21523897E-01  0.21167781E-01  0.20763849E-01  0.20316036E-01
  0.19828258E-01  0.19304399E-01  0.18748293E-01  0.18163710E-01  0.17554341E-01
  0.16923787E-01  0.16275548E-01  0.15613013E-01  0.14939452E-01  0.14258004E-01
  0.13571677E-01  0.12883336E-01  0.12195701E-01  0.11511343E-01  0.10832681E-01
  0.10161980E-01  0.95013464E-02  0.88527318E-02  0.82179306E-02  0.75985812E-02
  0.69961668E-02  0.64120184E-02  0.58473160E-02  0.53030926E-02  0.47802373E-02
  0.42794987E-02  0.38014902E-02  0.33466937E-02  0.29154650E-02  0.25080391E-02
  0.21245355E-02  0.17649638E-02  0.14292301E-02  0.11171423E-02  0.82841692E-03
  0.56268478E-03  0.31949761E-03  0.98334218E-04 -0.10139324E-03 -0.28033294E-03
 -0.43918727E-03 -0.57870661E-03 -0.69968338E-03 -0.80294613E-03 -0.88935375E-03
 -0.95978990E-03 -0.10151575E-02 -0.10563738E-02 -0.10843647E-02 -0.11000608E-02
 -0.11043919E-02 -0.10982835E-02 -0.10826520E-02 -0.10584012E-02 -0.10264187E-02
 -0.98757232E-03 -0.94270722E-03 -0.89264302E-03 -0.83817120E-03 -0.78005287E-03
 -0.71901667E-03 -0.65575705E-03 -0.59093269E-03 -0.52516530E-03 -0.45903852E-03
 -0.39309716E-03 -0.32784666E-03 -0.26375270E-03 -0.20124111E-03 -0.14069795E-03
 -0.82469730E-04 -0.26863943E-04  0.25850366E-04  0.75441786E-04  0.12171560E-03
  0.16451271E-03  0.20370841E-03  0.23921108E-03  0.27096076E-03  0.29892759E-03
  0.32311025E-03  0.34353426E-03  0.36025027E-03  0.37333227E-03  0.38287576E-03
  0.38899597E-03  0.39182595E-03  0.39151474E-03  0.38822553E-03  0.38213383E-03
  0.37342562E-03  0.36229563E-03  0.34894557E-03  0.33358244E-03  0.31641692E-03
  0.29766175E-03  0.27753027E-03  0.25623498E-03  0.23398615E-03  0.21099054E-03
  0.18745026E-03  0.16356158E-03  0.13951397E-03  0.11548914E-03  0.91660226E-04
  0.68191009E-04  0.45235284E-04  0.22936297E-04  0.14262703E-05 -0.19173978E-04
 -0.38755320E-04 -0.57220531E-04 -0.74484401E-04 -0.90473785E-04 -0.10512756E-03
 -0.11839650E-03 -0.13024313E-03 -0.14064143E-03 -0.14957656E-03 -0.15704446E-03
 -0.16305147E-03 -0.16761380E-03 -0.17075706E-03 -0.17251568E-03 -0.17293235E-03
 -0.17205736E-03 -0.16994798E-03 -0.16666783E-03 -0.16228612E-03 -0.15687705E-03
 -0.15051906E-03 -0.14329419E-03 -0.13528731E-03 -0.12658554E-03 -0.11727749E-03
 -0.10745264E-03 -0.97200747E-04 -0.86611142E-04 -0.75772212E-04 -0.64770808E-04
 -0.53691725E-04 -0.42617196E-04 -0.31626434E-04 -0.20795201E-04 -0.10195423E-04
  0.10516488E-06  0.10043326E-04  0.19560596E-04  0.28603506E-04  0.37123779E-04
  0.45078472E-04  0.52430088E-04  0.59146640E-04  0.65201685E-04  0.70574311E-04
  0.75249096E-04  0.79216029E-04  0.82470393E-04  0.85012627E-04  0.86848146E-04
  0.87987146E-04  0.88444372E-04  0.88238874E-04  0.87393731E-04  0.85935768E-04
  0.83895250E-04  0.81305561E-04  0.78202881E-04  0.74625846E-04  0.70615203E-04
  0.66213469E-04  0.61464577E-04  0.56413534E-04  0.51106075E-04  0.45588328E-04
  0.39906480E-04  0.34106459E-04  0.28233625E-04  0.22332472E-04  0.16446346E-04
  0.10617183E-04  0.48852542E-05 -0.71105565E-06 -0.61354649E-05 -0.11353982E-04
 -0.16335075E-04 -0.21049820E-04 -0.25472022E-04 -0.29578325E-04 -0.33348288E-04
 -0.36764445E-04 -0.39812341E-04 -0.42480551E-04 -0.44760668E-04 -0.46647282E-04
 -0.48137932E-04 -0.49233039E-04 -0.49935827E-04 -0.50252218E-04 -0.50190722E-04
 -0.49762301E-04 -0.48980229E-04 -0.47859933E-04 -0.46418831E-04 -0.44676150E-04
 -0.42652749E-04 -0.40370924E-04 -0.37854215E-04 -0.35127207E-04 -0.32215332E-04
 -0.29144662E-04 -0.25941716E-04 -0.22633256E-04 -0.19246092E-04 -0.15806899E-04
 -0.12342022E-04 -0.88773070E-05 -0.54379266E-05 -0.20482215E-05  0.12684511E-05
  0.44898571E-05  0.75950150E-05  0.10564313E-04  0.13379611E-04  0.16024337E-04
  0.18483561E-04  0.20744062E-04  0.22794380E-04  0.24624853E-04  0.26227641E-04
  0.27596738E-04  0.28727969E-04  0.29618978E-04  0.30269195E-04  0.30679803E-04
  0.30853684E-04  0.30795357E-04  0.30510910E-04  0.30007915E-04  0.29295342E-04
  0.28383461E-04  0.27283736E-04  0.26008719E-04  0.24571930E-04  0.22987741E-04
  0.21271252E-04  0.19438167E-04  0.17504666E-04  0.15487278E-04  0.13402758E-04
  0.11267956E-04  0.90997001E-05  0.69146701E-05  0.47292856E-05  0.25595919E-05
  0.42115384E-06 -0.16710457E-05 -0.37027005E-05 -0.56602683E-05 -0.75310520E-05
 -0.93032718E-05 -0.10966130E-04 -0.12509866E-04 -0.13925807E-04 -0.15206402E-04
 -0.16345255E-04 -0.17337146E-04 -0.18178041E-04 -0.18865097E-04 -0.19396656E-04
 -0.19772231E-04 -0.19992487E-04 -0.20059205E-04 -0.19975255E-04 -0.19744542E-04
 -0.19371961E-04 -0.18863342E-04 -0.18225380E-04 -0.17465580E-04 -0.16592173E-04
 -0.15614050E-04 -0.14540681E-04 -0.13382030E-04 -0.12148480E-04 -0.10850741E-04
 -0.94997717E-05 -0.81066891E-05 -0.66826884E-05 -0.52389581E-05 -0.37865990E-05
 -0.23365446E-05 -0.89948567E-06  0.51420346E-06  0.18945338E-05  0.32319669E-05
  0.45174754E-05  0.57425983E-05  0.68994918E-05  0.79809740E-05  0.89805641E-05
  0.98925157E-05  0.10711844E-04  0.11434349E-04  0.12056626E-04  0.12576081E-04
  0.12990927E-04  0.13300188E-04  0.13503686E-04  0.13602025E-04  0.13596576E-04
  0.13489448E-04  0.13283462E-04  0.12982113E-04  0.12589531E-04  0.12110440E-04
  0.11550115E-04  0.10914324E-04  0.10209284E-04  0.94416040E-05  0.86182279E-05
  0.77463778E-05  0.68334957E-05  0.58871843E-05  0.49151477E-05  0.39251332E-05
  0.29248731E-05  0.19220278E-05  0.92413111E-06 -0.61463272E-07 -0.10276326E-05
 -0.19675332E-05 -0.28746458E-05 -0.37428179E-05 -0.45663018E-05 -0.53397901E-05
 -0.60584465E-05 -0.67179330E-05 -0.73144322E-05 -0.78446668E-05 -0.83059133E-05
 -0.86960121E-05 -0.90133731E-05 -0.92569771E-05 -0.94263731E-05 -0.95216709E-05
 -0.95435304E-05 -0.94931462E-05 -0.93722299E-05 -0.91829871E-05 -0.89280927E-05
 -0.86106625E-05 -0.82342218E-05 -0.78026724E-05 -0.73202562E-05 -0.67915184E-05
 -0.62212674E-05 -0.56145351E-05 -0.49765353E-05 -0.43126216E-05 -0.36282450E-05
 -0.29289120E-05 -0.22201423E-05 -0.15074276E-05 -0.79619153E-06 -0.91749885E-07
  0.60072660E-06  0.12762484E-05  0.19300410E-05  0.25575771E-05  0.31546056E-05
  0.37171787E-05  0.42416759E-05  0.47248255E-05  0.51637228E-05  0.55558455E-05
  0.58990657E-05  0.61916592E-05  0.64323112E-05  0.66201192E-05  0.67545927E-05
  0.68356495E-05  0.68636095E-05  0.68391854E-05  0.67634707E-05  0.66379249E-05
  0.64643564E-05  0.62449031E-05  0.59820105E-05  0.56784087E-05  0.53370867E-05
  0.49612657E-05  0.45543714E-05  0.41200043E-05  0.36619104E-05  0.31839504E-05
  0.26900688E-05  0.21842630E-05  0.16705526E-05  0.11529486E-05  0.63542384E-06
  0.12188352E-06 -0.38386272E-06 -0.87812789E-06 -0.13573732E-05 -0.18182322E-05
 -0.22575332E-05 -0.26723198E-05 -0.30598693E-05 -0.34177098E-05 -0.37436340E-05
 -0.40357120E-05 -0.42923006E-05 -0.45120516E-05 -0.46939163E-05 -0.48371494E-05
 -0.49413086E-05 -0.50062538E-05 -0.50321427E-05 -0.50194250E-05 -0.49688342E-05
 -0.48813773E-05 -0.47583231E-05 -0.46011879E-05 -0.44117206E-05 -0.41918855E-05
 -0.39438438E-05 -0.36699347E-05 -0.33726545E-05 -0.30546353E-05 -0.27186231E-05
 -0.23674552E-05 -0.20040375E-05 -0.16313213E-05 -0.12522804E-05 -0.86988858E-06
 -0.48709681E-06 -0.10681160E-06  0.26812626E-06  0.63496201E-06  0.99104640E-06
  0.13338539E-05  0.16609998E-05  0.19702560E-05  0.22595653E-05  0.25270541E-05
  0.27710437E-05  0.29900600E-05  0.31828413E-05  0.33483441E-05  0.34857482E-05
  0.35944588E-05  0.36741078E-05  0.37245528E-05  0.37458745E-05  0.37383729E-05
  0.37025614E-05  0.36391597E-05  0.35490849E-05  0.34334416E-05  0.32935106E-05
  0.31307367E-05  0.29467147E-05  0.27431755E-05  0.25219707E-05  0.22850566E-05
  0.20344780E-05  0.17723513E-05  0.15008472E-05  0.12221738E-05  0.93855893E-06
  0.65223327E-06  0.36541335E-06  0.80284994E-07 -0.20101273E-06 -0.47640297E-06
 -0.74388584E-06 -0.10015524E-05 -0.12475975E-05 -0.14803322E-05 -0.16981945E-05
 -0.18997593E-05 -0.20837469E-05 -0.22490306E-05 -0.23946432E-05 -0.25197813E-05
 -0.26238091E-05 -0.27062607E-05 -0.27668411E-05 -0.28054257E-05 -0.28220586E-05
 -0.28169498E-05 -0.27904710E-05 -0.27431504E-05 -0.26756662E-05 -0.25888392E-05
 -0.24836246E-05 -0.23611026E-05 -0.22224681E-05 -0.20690201E-05 -0.19021506E-05
 -0.17233320E-05 -0.15341051E-05 -0.13360664E-05 -0.11308551E-05 -0.92014000E-06
 -0.70560642E-06 -0.48894320E-06 -0.27182983E-06 -0.55923854E-07  0.15715134E-06
  0.36581834E-06  0.56855694E-06  0.76391486E-06  0.95051766E-06  0.11270781E-05
  0.12924044E-05  0.14454081E-05  0.15851105E-05  0.17106488E-05  0.18212805E-05
  0.19163873E-05  0.19954783E-05  0.20581913E-05  0.21042941E-05  0.21336840E-05
  0.21463868E-05  0.21425544E-05  0.21224625E-05  0.20865056E-05  0.20351933E-05
  0.19691438E-05  0.18890784E-05  0.17958139E-05  0.16902554E-05  0.15733876E-05
  0.14462669E-05  0.13100117E-05  0.11657932E-05  0.10148257E-05  0.85835696E-06
  0.69765794E-06  0.53401301E-06  0.36870991E-06  0.20302999E-06  0.38238555E-07
 -0.12442447E-06 -0.28375361E-06 -0.43858644E-06 -0.58781179E-06 -0.73037742E-06
 -0.86529711E-06 -0.99165722E-06 -0.11086225E-05 -0.12154413E-05 -0.13114500E-05
 -0.13960768E-05 -0.14688449E-05 -0.15293742E-05 -0.15773833E-05 -0.16126899E-05
 -0.16352108E-05 -0.16449612E-05 -0.16420529E-05 -0.16266923E-05 -0.15991772E-05
 -0.15598934E-05 -0.15093104E-05 -0.14479766E-05 -0.13765142E-05 -0.12956130E-05
 -0.12060246E-05 -0.11085554E-05 -0.10040602E-05 -0.89343454E-06 -0.77760744E-06
 -0.65753402E-06 -0.53418778E-06 -0.40855290E-06 -0.28161672E-06 -0.15436215E-06
 -0.27760295E-07  0.97236735E-07  0.21970276E-06  0.33874418E-06  0.45350627E-06
  0.56317912E-06  0.66700309E-06  0.76427386E-06  0.85434696E-06  0.93664180E-06
  0.10106451E-05  0.10759140E-05  0.11320780E-05  0.11788411E-05  0.12159829E-05
  0.12433590E-05  0.12609012E-05  0.12686167E-05  0.12665872E-05  0.12549671E-05
  0.12339813E-05  0.12039224E-05  0.11651476E-05  0.11180750E-05  0.10631797E-05
  0.10009893E-05  0.93207893E-06  0.85706668E-06  0.77660791E-06  0.69138992E-06
  0.60212626E-06  0.50955095E-06  0.41441265E-06  0.31746876E-06  0.21947959E-06
  0.12120255E-06  0.23386449E-07 -0.73234027E-07 -0.16794367E-06 -0.26005191E-06
 -0.34889763E-06 -0.43385381E-06 -0.51433176E-06 -0.58978498E-06 -0.65971278E-06
 -0.72366333E-06 -0.78123641E-06 -0.83208573E-06 -0.87592074E-06 -0.91250804E-06
 -0.94167234E-06 -0.96329698E-06 -0.97732392E-06 -0.98375343E-06 -0.98264316E-06
 -0.97410699E-06 -0.95831330E-06 -0.93548296E-06 -0.90588691E-06 -0.86984340E-06
 -0.82771494E-06 -0.77990491E-06 -0.72685393E-06 -0.66903607E-06 -0.60695470E-06
 -0.54113838E-06 -0.47213642E-06 -0.40051454E-06 -0.32685029E-06 -0.25172856E-06
 -0.17573706E-06 -0.99461873E-07 -0.23483011E-07  0.51629839E-07  0.12532147E-06
  0.19705515E-06  0.26631640E-06  0.33261653E-06  0.39549603E-06  0.45452755E-06
  0.50931870E-06  0.55951452E-06  0.60479962E-06  0.64490001E-06  0.67958457E-06
  0.70866619E-06  0.73200259E-06  0.74949672E-06  0.76109689E-06  0.76679652E-06
  0.76663355E-06  0.76068955E-06  0.74908847E-06  0.73199514E-06  0.70961346E-06
  0.68218431E-06  0.64998321E-06  0.61331783E-06  0.57252514E-06  0.52796854E-06
  0.48003473E-06  0.42913048E-06  0.37567932E-06  0.32011809E-06  0.26289351E-06
  0.20445866E-06  0.14526950E-06  0.85781418E-07  0.26445800E-07 -0.32293288E-07
 -0.90002337E-07 -0.14626150E-06 -0.20066755E-06 -0.25283669E-06 -0.30240714E-06
 -0.34904155E-06 -0.39242924E-06 -0.43228806E-06 -0.46836624E-06 -0.50044373E-06
 -0.52833353E-06 -0.55188254E-06 -0.57097231E-06 -0.58551940E-06 -0.59547558E-06
 -0.60082764E-06 -0.60159708E-06 -0.59783941E-06 -0.58964333E-06 -0.57712954E-06
 -0.56044948E-06 -0.53978372E-06 -0.51534023E-06 -0.48735246E-06 -0.45607722E-06
 -0.42179249E-06 -0.38479499E-06 -0.34539778E-06 -0.30392764E-06 -0.26072248E-06
 -0.21612862E-06 -0.17049817E-06 -0.12418624E-06 -0.77548292E-07 -0.30937475E-07
  0.15297978E-07  0.60817285E-07  0.10528955E-06  0.14839611E-06  0.18983271E-06
  0.22931165E-06  0.26656361E-06  0.30133949E-06  0.33341196E-06  0.36257684E-06
  0.38865436E-06  0.41149014E-06  0.43095599E-06  0.44695055E-06  0.45939963E-06
  0.46825647E-06  0.47350165E-06  0.47514293E-06  0.47321478E-06  0.46777780E-06
  0.45891792E-06  0.44674541E-06  0.43139375E-06  0.41301832E-06  0.39179496E-06
  0.36791840E-06  0.34160057E-06  0.31306877E-06  0.28256381E-06  0.25033802E-06
  0.21665327E-06  0.18177884E-06  0.14598938E-06  0.10956278E-06  0.72778052E-07
  0.35913285E-07 -0.75643177E-09 -0.36960999E-07 -0.72437244E-07 -0.10693077E-06
 -0.14019776E-06 -0.17200657E-06 -0.20213938E-06 -0.23039356E-06 -0.25658298E-06
 -0.28053920E-06 -0.30211246E-06 -0.32117257E-06 -0.33760960E-06 -0.35133442E-06
 -0.36227913E-06 -0.37039728E-06 -0.37566388E-06 -0.37807540E-06 -0.37764944E-06
 -0.37442440E-06 -0.36845887E-06 -0.35983098E-06 -0.34863756E-06 -0.33499317E-06
 -0.31902908E-06 -0.30089205E-06 -0.28074304E-06 -0.25875590E-06 -0.23511587E-06
 -0.21001809E-06 -0.18366606E-06 -0.15627000E-06 -0.12804524E-06 -0.99210580E-07
 -0.69986600E-07 -0.40594050E-07 -0.11252208E-07  0.17822713E-07  0.46419116E-07
  0.74331520E-07  0.10136199E-06  0.12732151E-06  0.15203125E-06  0.17532376E-06
  0.19704405E-06  0.21705059E-06  0.23521619E-06  0.25142873E-06  0.26559181E-06
  0.27762529E-06  0.28746565E-06  0.29506627E-06  0.30039754E-06  0.30344691E-06
  0.30421875E-06  0.30273414E-06  0.29903046E-06  0.29316098E-06  0.28519423E-06
  0.27521337E-06  0.26331533E-06  0.24961003E-06  0.23421932E-06  0.21727602E-06
  0.19892279E-06  0.17931096E-06  0.15859934E-06  0.13695296E-06  0.11454179E-06
  0.91539429E-07  0.68121808E-07  0.44465871E-07  0.20748268E-07 -0.28559325E-08
 -0.26174505E-07 -0.49039290E-07 -0.71287380E-07 -0.92762245E-07 -0.11331480E-06
 -0.13280442E-06 -0.15109986E-06 -0.16808008E-06 -0.18363508E-06 -0.19766651E-06
 -0.21008829E-06 -0.22082707E-06 -0.22982266E-06 -0.23702829E-06 -0.24241080E-06
 -0.24595077E-06 -0.24764242E-06 -0.24749361E-06 -0.24552554E-06 -0.24177247E-06
   14.3619175131998      T
 Non local Part
           2           2   1.40672226000612     
   21.2582835079684        20.3652151980441        20.3652151980441     
   19.5075579329998     
 Reciprocal Space Part
  0.00000000E+00 -0.23821723E+00 -0.94654639E+00 -0.21061639E+01 -0.36861733E+01
 -0.56443089E+01 -0.79278972E+01 -0.10475056E+02 -0.13216102E+02 -0.16075137E+02
 -0.18971776E+02 -0.21822976E+02 -0.24544926E+02 -0.27054957E+02 -0.29273428E+02
 -0.31125539E+02 -0.32543051E+02 -0.33465839E+02 -0.33843291E+02 -0.33635474E+02
 -0.32814079E+02 -0.31363111E+02 -0.29279297E+02 -0.26572237E+02 -0.23264256E+02
 -0.19390001E+02 -0.14995763E+02 -0.10138554E+02 -0.48849681E+01  0.69016240E+00
  0.65052762E+01  0.12473721E+02  0.18505490E+02  0.24509011E+02  0.30392955E+02
  0.36068026E+02  0.41448680E+02  0.46454758E+02  0.51012983E+02  0.55058297E+02
  0.58535008E+02  0.61397735E+02  0.63612124E+02  0.65155321E+02  0.66016215E+02
  0.66195429E+02  0.65705072E+02  0.64568271E+02  0.62818483E+02  0.60498616E+02
  0.57659981E+02  0.54361101E+02  0.50666400E+02  0.46644815E+02  0.42368355E+02
  0.37910637E+02  0.33345439E+02  0.28745295E+02  0.24180161E+02  0.19716179E+02
  0.15414570E+02  0.11330656E+02  0.75130565E+01  0.40030396E+01  0.83406306E+00
 -0.19685092E+01 -0.43875076E+01 -0.64138812E+01 -0.80464546E+01 -0.92915298E+01
 -0.10162347E+02 -0.10678423E+02 -0.10864788E+02 -0.10751145E+02 -0.10370960E+02
 -0.97605318E+01 -0.89580405E+01 -0.80026065E+01 -0.69333841E+01 -0.57887028E+01
 -0.46052778E+01 -0.34175026E+01 -0.22568365E+01 -0.11512971E+01 -0.12506315E+00
  0.80180750E+00  0.16135458E+01  0.22987259E+01  0.28502126E+01  0.32650074E+01
  0.35440047E+01  0.36916675E+01  0.37156362E+01  0.36262844E+01  0.34362352E+01
  0.31598532E+01  0.28127264E+01  0.24111517E+01  0.19716377E+01  0.15104359E+01
 Real Space Part
  0.00000000E+00  0.19154635E+00  0.76498277E+00  0.17167073E+01  0.30407369E+01
  0.47287369E+01  0.67700634E+01  0.91518161E+01  0.11858904E+02  0.14874119E+02
  0.18178228E+02  0.21750065E+02  0.25566640E+02  0.29603260E+02  0.33833651E+02
  0.38230097E+02  0.42763583E+02  0.47403947E+02  0.52120039E+02  0.56879886E+02
  0.61650866E+02  0.66399882E+02  0.71093550E+02  0.75698380E+02  0.80180966E+02
  0.84508183E+02  0.88647379E+02  0.92566574E+02  0.96234654E+02  0.99621572E+02
  0.10269854E+03  0.10543824E+03  0.10781498E+03  0.10980495E+03  0.11138633E+03
  0.11253954E+03  0.11324738E+03  0.11349520E+03  0.11327111E+03  0.11256605E+03
  0.11137402E+03  0.10969217E+03  0.10752093E+03  0.10486412E+03  0.10172905E+03
  0.98126579E+02  0.94071186E+02  0.89580996E+02  0.84677797E+02  0.79387023E+02
  0.73737707E+02  0.67762413E+02  0.61497122E+02  0.54981091E+02  0.48256667E+02
  0.41369062E+02  0.34366086E+02  0.27297831E+02  0.20216313E+02  0.13175061E+02
  0.62286634E+01 -0.56773419E+00 -0.71589774E+01 -0.13490491E+02 -0.19508905E+02
 -0.25162714E+02 -0.30402960E+02 -0.35183935E+02 -0.39463887E+02 -0.43205725E+02
 -0.46377713E+02 -0.48954125E+02 -0.50915876E+02 -0.52251078E+02 -0.52955543E+02
 -0.53033215E+02 -0.52496483E+02 -0.51366408E+02 -0.49672862E+02 -0.47454502E+02
 -0.44758668E+02 -0.41641156E+02 -0.38165828E+02 -0.34404193E+02 -0.30434769E+02
 -0.26342475E+02 -0.22217800E+02 -0.18156034E+02 -0.14256311E+02 -0.10620712E+02
 -0.73532719E+01 -0.45590451E+01 -0.23426683E+01 -0.80759629E+00 -0.70691051E-01
  0.38889185E-02  0.64603985E-03 -0.25052922E-03  0.37141688E-04  0.00000000E+00
 Reciprocal Space Part
  0.00000000E+00  0.24910172E+00  0.98994614E+00  0.22032969E+01  0.38575761E+01
  0.59095765E+01  0.83054369E+01  0.10981856E+02  0.13867522E+02  0.16884716E+02
  0.19951071E+02  0.22981420E+02  0.25889722E+02  0.28590998E+02  0.31003245E+02
  0.33049288E+02  0.34658520E+02  0.35768499E+02  0.36326362E+02  0.36290034E+02
  0.35629191E+02  0.34325972E+02  0.32375421E+02  0.29785645E+02  0.26577693E+02
  0.22785159E+02  0.18453515E+02  0.13639201E+02  0.84084825E+01  0.28361085E+01
 -0.29962000E+01 -0.90013967E+01 -0.15088855E+02 -0.21166171E+02 -0.27140991E+02
 -0.32922811E+02 -0.38424726E+02 -0.43565080E+02 -0.48268984E+02 -0.52469682E+02
 -0.56109725E+02 -0.59141933E+02 -0.61530143E+02 -0.63249706E+02 -0.64287752E+02
 -0.64643200E+02 -0.64326540E+02 -0.63359378E+02 -0.61773763E+02 -0.59611328E+02
 -0.56922253E+02 -0.53764077E+02 -0.50200405E+02 -0.46299518E+02 -0.42132930E+02
 -0.37773934E+02 -0.33296140E+02 -0.28772072E+02 -0.24271821E+02 -0.19861807E+02
 -0.15603648E+02 -0.11553183E+02 -0.77596413E+01 -0.42649890E+01 -0.11034479E+01
  0.16988012E+01  0.41237360E+01  0.61614321E+01  0.78098360E+01  0.90743803E+01
  0.99674586E+01  0.10507777E+02  0.10719601E+02  0.10631922E+02  0.10277561E+02
  0.96922412E+01  0.89136395E+01  0.79804525E+01  0.69314887E+01  0.58048109E+01
  0.46369442E+01  0.34621663E+01  0.23118903E+01  0.12141524E+01  0.19320812E+00
 -0.73075645E+00 -0.15417998E+01 -0.22282876E+01 -0.27828474E+01 -0.32022233E+01
 -0.34870396E+01 -0.36414837E+01 -0.36729224E+01 -0.35914637E+01 -0.34094787E+01
 -0.31410990E+01 -0.28017022E+01 -0.24074012E+01 -0.19745491E+01 -0.15192713E+01
 Real Space Part
  0.00000000E+00 -0.18752418E+00 -0.74890862E+00 -0.16805950E+01 -0.29766726E+01
 -0.46289084E+01 -0.66267881E+01 -0.89575695E+01 -0.11606347E+02 -0.14556128E+02
 -0.17787917E+02 -0.21280815E+02 -0.25012126E+02 -0.28957473E+02 -0.33090924E+02
 -0.37385129E+02 -0.41811461E+02 -0.46340166E+02 -0.50940525E+02 -0.55581016E+02
 -0.60229485E+02 -0.64853323E+02 -0.69419647E+02 -0.73895484E+02 -0.78247962E+02
 -0.82444501E+02 -0.86453002E+02 -0.90242051E+02 -0.93781106E+02 -0.97040700E+02
 -0.99992632E+02 -0.10261016E+03 -0.10486820E+03 -0.10674351E+03 -0.10821486E+03
 -0.10926324E+03 -0.10987204E+03 -0.11002715E+03 -0.10971723E+03 -0.10893376E+03
 -0.10767124E+03 -0.10592732E+03 -0.10370288E+03 -0.10100219E+03 -0.97832937E+02
 -0.94206361E+02 -0.90137257E+02 -0.85644027E+02 -0.80748685E+02 -0.75476837E+02
 -0.69857629E+02 -0.63923677E+02 -0.57710941E+02 -0.51258591E+02 -0.44608806E+02
 -0.37806553E+02 -0.30899317E+02 -0.23936776E+02 -0.16970445E+02 -0.10053267E+02
 -0.32391556E+01  0.34175070E+01  0.98624122E+01  0.16041911E+02  0.21903636E+02
  0.27397151E+02  0.32474628E+02  0.37091536E+02  0.41207340E+02  0.44786190E+02
  0.47797594E+02  0.50217070E+02  0.52026745E+02  0.53215902E+02  0.53781460E+02
  0.53728387E+02  0.53069992E+02  0.51828136E+02  0.50033352E+02  0.47724799E+02
  0.44950152E+02  0.41765353E+02  0.38234216E+02  0.34428002E+02  0.30424767E+02
  0.26308763E+02  0.22169599E+02  0.18101483E+02  0.14202268E+02  0.10572565E+02
  0.73147702E+01  0.45321340E+01  0.23273549E+01  0.80182989E+00  0.70148907E-01
 -0.38567789E-02 -0.64070615E-03  0.24846085E-03 -0.36835046E-04  0.00000000E+00
 Non local Part
           0           2   1.40672226000612     
   5.70597873677346        8.69549576634055        8.69549576634055     
   13.2771292830079     
 Reciprocal Space Part
  0.36686977E+02  0.36183403E+02  0.34680707E+02  0.32202825E+02  0.28789180E+02
  0.24493983E+02  0.19385273E+02  0.13543716E+02  0.70611926E+01  0.39182007E-01
 -0.74130017E+01 -0.15180105E+02 -0.23142917E+02 -0.31180304E+02 -0.39171260E+02
 -0.46996922E+02 -0.54542534E+02 -0.61699309E+02 -0.68366150E+02 -0.74451222E+02
 -0.79873325E+02 -0.84563056E+02 -0.88463742E+02 -0.91532127E+02 -0.93738808E+02
 -0.95068412E+02 -0.95519520E+02 -0.95104342E+02 -0.93848158E+02 -0.91788537E+02
 -0.88974355E+02 -0.85464635E+02 -0.81327244E+02 -0.76637455E+02 -0.71476432E+02
 -0.65929646E+02 -0.60085265E+02 -0.54032555E+02 -0.47860306E+02 -0.41655331E+02
 -0.35501047E+02 -0.29476182E+02 -0.23653608E+02 -0.18099339E+02 -0.12871685E+02
 -0.80205989E+01 -0.35871973E+01  0.39652696E+00  0.39078072E+01  0.69330267E+01
  0.94674704E+01  0.11514920E+02  0.13087102E+02  0.14203017E+02  0.14888153E+02
  0.15173619E+02  0.15095218E+02  0.14692467E+02  0.14007610E+02  0.13084623E+02
  0.11968250E+02  0.10703075E+02  0.93326528E+01  0.78987179E+01  0.64404777E+01
  0.49940033E+01  0.35917261E+01  0.22620434E+01  0.10290369E+01 -0.87697438E-01
 -0.10731102E+01 -0.19166560E+01 -0.26121542E+01 -0.31575628E+01 -0.35546746E+01
 -0.38087491E+01 -0.39280920E+01 -0.39235948E+01 -0.38082488E+01 -0.35966465E+01
 -0.33044821E+01 -0.29480643E+01 -0.25438512E+01 -0.21080182E+01 -0.16560657E+01
 -0.12024749E+01 -0.76041654E+00 -0.34151493E+00  0.44328585E-01  0.38905420E+00
  0.68650440E+00  0.93242978E+00  0.11244436E+01  0.12619300E+01  0.13459112E+01
  0.13788812E+01  0.13646112E+01  0.13079358E+01  0.12145255E+01  0.10906535E+01
 Real Space Part
 -0.18014613E+03 -0.18009570E+03 -0.17994424E+03 -0.17969125E+03 -0.17933590E+03
 -0.17887704E+03 -0.17831321E+03 -0.17764264E+03 -0.17686329E+03 -0.17597286E+03
 -0.17496877E+03 -0.17384825E+03 -0.17260832E+03 -0.17124585E+03 -0.16975755E+03
 -0.16814005E+03 -0.16638990E+03 -0.16450363E+03 -0.16247778E+03 -0.16030896E+03
 -0.15799389E+03 -0.15552941E+03 -0.15291260E+03 -0.15014078E+03 -0.14721157E+03
 -0.14412297E+03 -0.14087339E+03 -0.13746173E+03 -0.13388742E+03 -0.13015047E+03
 -0.12625158E+03 -0.12219214E+03 -0.11797431E+03 -0.11360111E+03 -0.10907641E+03
 -0.10440505E+03 -0.99592846E+02 -0.94646667E+02 -0.89574455E+02 -0.84385278E+02
 -0.79089354E+02 -0.73698081E+02 -0.68224051E+02 -0.62681057E+02 -0.57084090E+02
 -0.51449326E+02 -0.45794093E+02 -0.40136833E+02 -0.34497042E+02 -0.28895195E+02
 -0.23352653E+02 -0.17891553E+02 -0.12534677E+02 -0.73052964E+01 -0.22270041E+01
  0.26764797E+01  0.73815207E+01  0.11864803E+02  0.16103577E+02  0.20075931E+02
  0.23761061E+02  0.27139571E+02  0.30193761E+02  0.32907925E+02  0.35268650E+02
  0.37265094E+02  0.38889258E+02  0.40136237E+02  0.41004432E+02  0.41495739E+02
  0.41615692E+02  0.41373555E+02  0.40782368E+02  0.39858931E+02  0.38623729E+02
  0.37100799E+02  0.35317532E+02  0.33304403E+02  0.31094678E+02  0.28724015E+02
  0.26230068E+02  0.23652023E+02  0.21030108E+02  0.18405091E+02  0.15817752E+02
  0.13308373E+02  0.10916220E+02  0.86790601E+01  0.66327016E+01  0.48105674E+01
  0.32433242E+01  0.19585801E+01  0.98043006E+00  0.32935164E+00  0.27621573E-01
 -0.16367991E-02 -0.27149458E-03  0.10528348E-03 -0.15608584E-04  0.00000000E+00
 Reciprocal Space Part
 -0.14807326E+02 -0.14500066E+02 -0.13583297E+02 -0.12071953E+02 -0.99906335E+01
 -0.73731555E+01 -0.42619564E+01 -0.70733707E+00  0.32334297E+01  0.74971102E+01
  0.12015622E+02  0.16717222E+02  0.21527757E+02  0.26371932E+02  0.31174606E+02
  0.35862053E+02  0.40363191E+02  0.44610750E+02  0.48542352E+02  0.52101487E+02
  0.55238372E+02  0.57910676E+02  0.60084095E+02  0.61732777E+02  0.62839584E+02
  0.63396192E+02  0.63403037E+02  0.62869094E+02  0.61811520E+02  0.60255146E+02
  0.58231852E+02  0.55779827E+02  0.52942739E+02  0.49768823E+02  0.46309917E+02
  0.42620461E+02  0.38756483E+02  0.34774580E+02  0.30730930E+02  0.26680347E+02
  0.22675389E+02  0.18765542E+02  0.14996494E+02  0.11409503E+02  0.80408794E+01
  0.49215753E+01  0.20768937E+01 -0.47368219E+00 -0.27165442E+01 -0.46438992E+01
 -0.62536025E+01 -0.75488897E+01 -0.85380197E+01 -0.92338374E+01 -0.96532702E+01
 -0.98167711E+01 -0.97477217E+01 -0.94718101E+01 -0.90163974E+01 -0.84098866E+01
 -0.76811062E+01 -0.68587220E+01 -0.59706865E+01 -0.50437371E+01 -0.41029493E+01
 -0.31713535E+01 -0.22696181E+01 -0.14158038E+01 -0.62518852E+00  0.89834964E-01
  0.71979343E+00  0.12581007E+01  0.17009644E+01  0.20472368E+01  0.22982175E+01
  0.24574147E+01  0.25302738E+01  0.25238811E+01  0.24466517E+01  0.23080093E+01
  0.21180667E+01  0.18873136E+01  0.16263203E+01  0.13454613E+01  0.10546659E+01
  0.76319897E+00  0.47947604E+00  0.21091427E+00 -0.36179234E-01 -0.25668143E+00
 -0.44669064E+00 -0.60352869E+00 -0.72571035E+00 -0.81288325E+00 -0.86574188E+00
 -0.88591991E+00 -0.87586507E+00 -0.83870150E+00 -0.77808386E+00 -0.69804796E+00
 Real Space Part
  0.11985268E+03  0.11981961E+03  0.11972030E+03  0.11955441E+03  0.11932141E+03
  0.11902056E+03  0.11865091E+03  0.11821132E+03  0.11770046E+03  0.11711684E+03
  0.11645880E+03  0.11572454E+03  0.11491214E+03  0.11401955E+03  0.11304465E+03
  0.11198526E+03  0.11083914E+03  0.10960405E+03  0.10827773E+03  0.10685799E+03
  0.10534270E+03  0.10372981E+03  0.10201742E+03  0.10020378E+03  0.98287355E+02
  0.96266832E+02  0.94141172E+02  0.91909648E+02  0.89571874E+02  0.87127855E+02
  0.84578014E+02  0.81923239E+02  0.79164915E+02  0.76304967E+02  0.73345891E+02
  0.70290793E+02  0.67143419E+02  0.63908190E+02  0.60590225E+02  0.57195371E+02
  0.53730220E+02  0.50202127E+02  0.46619221E+02  0.42990411E+02  0.39325380E+02
  0.35634583E+02  0.31929220E+02  0.28221219E+02  0.24523190E+02  0.20848382E+02
  0.17210625E+02  0.13624253E+02  0.10104026E+02  0.66650260E+01  0.33225528E+01
  0.91995575E-01 -0.30113027E+01 -0.59721954E+01 -0.87758929E+01 -0.11408135E+02
 -0.13855370E+02 -0.16104943E+02 -0.18145286E+02 -0.19966112E+02 -0.21558602E+02
 -0.22915593E+02 -0.24031748E+02 -0.24903723E+02 -0.25530304E+02 -0.25912532E+02
 -0.26053791E+02 -0.25959877E+02 -0.25639024E+02 -0.25101896E+02 -0.24361542E+02
 -0.23433313E+02 -0.22334731E+02 -0.21085325E+02 -0.19706431E+02 -0.18220950E+02
 -0.16653085E+02 -0.15028044E+02 -0.13371724E+02 -0.11710392E+02 -0.10070341E+02
 -0.84775598E+01 -0.69574031E+01 -0.55342753E+01 -0.42313341E+01 -0.30702158E+01
 -0.20707936E+01 -0.12509811E+01 -0.62643931E+00 -0.21050682E+00 -0.17658178E-01
  0.10471261E-02  0.17368406E-03 -0.67353328E-04  0.99853272E-05  0.00000000E+00
 Non local Part
           1           2   1.40672226000612     
   7.69284035471326        10.6329495137389        10.6329495137389     
   14.8441341843354     
 Reciprocal Space Part
  0.00000000E+00  0.77701041E+00  0.15281364E+01  0.22280777E+01  0.28526883E+01
  0.33795206E+01  0.37883297E+01  0.40615269E+01  0.41845728E+01  0.41462992E+01
  0.39391547E+01  0.35593679E+01  0.30070242E+01  0.22860569E+01  0.14041507E+01
  0.37256393E+00 -0.79412936E+00 -0.20783677E+01 -0.34599942E+01 -0.49167029E+01
 -0.64245266E+01 -0.79583569E+01 -0.94924827E+01 -0.11001135E+02 -0.12459024E+02
 -0.13841861E+02 -0.15126846E+02 -0.16293119E+02 -0.17322155E+02 -0.18198109E+02
 -0.18908089E+02 -0.19442364E+02 -0.19794493E+02 -0.19961390E+02 -0.19943305E+02
 -0.19743740E+02 -0.19369295E+02 -0.18829452E+02 -0.18136304E+02 -0.17304235E+02
 -0.16349564E+02 -0.15290155E+02 -0.14145013E+02 -0.12933863E+02 -0.11676738E+02
 -0.10393567E+02 -0.91037909E+01 -0.78259967E+01 -0.65775937E+01 -0.53745242E+01
 -0.42310216E+01 -0.31594177E+01 -0.21699994E+01 -0.12709193E+01 -0.46815625E+00
  0.23447273E+00  0.83525447E+00  0.13344776E+01  0.17342921E+01  0.20385356E+01
  0.22525326E+01  0.23828726E+01  0.24371746E+01  0.24238432E+01  0.23518240E+01
  0.22303635E+01  0.20687799E+01  0.18762492E+01  0.16616103E+01  0.14331953E+01
  0.11986835E+01  0.96498510E+00  0.73815301E+00  0.52332348E+00  0.32468539E+00
  0.14547643E+00 -0.11995878E-01 -0.14631074E+00 -0.25687129E+00 -0.34382579E+00
 -0.40797632E+00 -0.45067867E+00 -0.47373696E+00 -0.47929657E+00 -0.46973847E+00
 -0.44757823E+00 -0.41537192E+00 -0.37563134E+00 -0.33075021E+00 -0.28294250E+00
 -0.23419363E+00 -0.18622493E+00 -0.14047104E+00 -0.98069740E-01 -0.59863258E-01
 -0.26409804E-01  0.19961347E-02  0.25296383E-01  0.43636291E-01  0.57328347E-01
 Real Space Part
  0.00000000E+00 -0.15264817E+01 -0.30494810E+01 -0.45655170E+01 -0.60711126E+01
 -0.75627959E+01 -0.90371027E+01 -0.10490578E+02 -0.11919781E+02 -0.13321283E+02
 -0.14691676E+02 -0.16027575E+02 -0.17325620E+02 -0.18582482E+02 -0.19794870E+02
 -0.20959536E+02 -0.22073278E+02 -0.23132955E+02 -0.24135488E+02 -0.25077872E+02
 -0.25957187E+02 -0.26770604E+02 -0.27515401E+02 -0.28188974E+02 -0.28788848E+02
 -0.29312694E+02 -0.29758341E+02 -0.30123794E+02 -0.30407248E+02 -0.30607107E+02
 -0.30722001E+02 -0.30750805E+02 -0.30692657E+02 -0.30546978E+02 -0.30313490E+02
 -0.29992240E+02 -0.29583614E+02 -0.29088359E+02 -0.28507602E+02 -0.27842867E+02
 -0.27096096E+02 -0.26269656E+02 -0.25366361E+02 -0.24389479E+02 -0.23342745E+02
 -0.22230363E+02 -0.21057010E+02 -0.19827836E+02 -0.18548456E+02 -0.17224942E+02
 -0.15863803E+02 -0.14471968E+02 -0.13056750E+02 -0.11625818E+02 -0.10187147E+02
 -0.87489762E+01 -0.73197422E+01 -0.59080195E+01 -0.45224451E+01 -0.31716390E+01
 -0.18641169E+01 -0.60819750E+00  0.58809564E+00  0.17171357E+01  0.27717967E+01
  0.37455588E+01  0.46326116E+01  0.54279549E+01  0.61274940E+01  0.67281271E+01
  0.72278229E+01  0.76256860E+01  0.79220079E+01  0.81183002E+01  0.82173118E+01
  0.82230273E+01  0.81406411E+01  0.79765136E+01  0.77381100E+01  0.74339110E+01
  0.70733130E+01  0.66665080E+01  0.62243460E+01  0.57581933E+01  0.52797711E+01
  0.48010001E+01  0.43338309E+01  0.38900859E+01  0.34812977E+01  0.31185524E+01
  0.28123653E+01  0.25727519E+01  0.24074514E+01  0.23227104E+01  0.23786565E+01
  0.20026214E+01  0.13923199E+01  0.78163113E+00  0.96118077E-01  0.00000000E+00
 Reciprocal Space Part
  0.00000000E+00 -0.17936177E-01 -0.25233316E-01 -0.11527976E-01  0.32998812E-01
  0.11736594E+00  0.24955611E+00  0.43630494E+00  0.68292039E+00  0.99313681E+00
  0.13690071E+01  0.18108354E+01  0.23171521E+01  0.28847314E+01  0.35086503E+01
  0.41823891E+01  0.48979682E+01  0.56461206E+01  0.64164933E+01  0.71978740E+01
  0.79784375E+01  0.87460046E+01  0.94883090E+01  0.10193264E+02  0.10849225E+02
  0.11445239E+02  0.11971275E+02  0.12418440E+02  0.12779153E+02  0.13047303E+02
  0.13218367E+02  0.13289483E+02  0.13259504E+02  0.13128994E+02  0.12900203E+02
  0.12576995E+02  0.12164748E+02  0.11670222E+02  0.11101401E+02  0.10467311E+02
  0.97778207E+01  0.90434321E+01  0.82750587E+01  0.74838056E+01  0.66807509E+01
  0.58767345E+01  0.50821599E+01  0.43068120E+01  0.35596955E+01  0.28488958E+01
  0.21814651E+01  0.15633363E+01  0.99926413E+00  0.49279401E+00  0.46259346E-01
 -0.33902471E+00 -0.66356773E+00 -0.92792538E+00 -0.11343184E+01 -0.12856724E+01
 -0.13856691E+01 -0.14386182E+01 -0.14493224E+01 -0.14229404E+01 -0.13648508E+01
 -0.12805205E+01 -0.11753803E+01 -0.10547096E+01 -0.92353471E+00 -0.78653893E+00
 -0.64798942E+00 -0.51167900E+00 -0.38088450E+00 -0.25834119E+00 -0.14623287E+00
 -0.46196662E-01  0.40658842E-01  0.11372339E+00  0.17284479E+00  0.21828039E+00
  0.25064232E+00  0.27083849E+00  0.28001146E+00  0.27947702E+00  0.27066432E+00
  0.25505903E+00  0.23415109E+00  0.20938805E+00  0.18213494E+00  0.15364123E+00
  0.12501528E+00  0.97206312E-01  0.70993672E-01  0.46983150E-01  0.25609611E-01
  0.71452814E-02 -0.82871941E-02 -0.20697891E-01 -0.30209919E-01 -0.37037929E-01
 Real Space Part
  0.00000000E+00  0.96865905E+00  0.19352373E+01  0.28976546E+01  0.38538327E+01
  0.48016957E+01  0.57391714E+01  0.66641920E+01  0.75746961E+01  0.84686295E+01
  0.93439473E+01  0.10198616E+02  0.11030615E+02  0.11837942E+02  0.12618610E+02
  0.13370657E+02  0.14092148E+02  0.14781176E+02  0.15435870E+02  0.16054399E+02
  0.16634978E+02  0.17175873E+02  0.17675409E+02  0.18131974E+02  0.18544033E+02
  0.18910128E+02  0.19228893E+02  0.19499061E+02  0.19719472E+02  0.19889086E+02
  0.20006991E+02  0.20072416E+02  0.20084741E+02  0.20043510E+02  0.19948439E+02
  0.19799435E+02  0.19596598E+02  0.19340242E+02  0.19030901E+02  0.18669343E+02
  0.18256579E+02  0.17793872E+02  0.17282750E+02  0.16725008E+02  0.16122719E+02
  0.15478235E+02  0.14794195E+02  0.14073519E+02  0.13319409E+02  0.12535345E+02
  0.11725076E+02  0.10892607E+02  0.10042186E+02  0.91782827E+01  0.83055670E+01
  0.74288795E+01  0.65531995E+01  0.56836085E+01  0.48252482E+01  0.39832750E+01
  0.31628102E+01  0.23688859E+01  0.16063887E+01  0.88000004E+00  0.19413546E+00
 -0.44711760E+00 -0.10400611E+01 -0.15814467E+01 -0.20685328E+01 -0.24991382E+01
 -0.28716898E+01 -0.31852636E+01 -0.34396180E+01 -0.36352172E+01 -0.37732445E+01
 -0.38556058E+01 -0.38849190E+01 -0.38644924E+01 -0.37982936E+01 -0.36909011E+01
 -0.35474507E+01 -0.33735687E+01 -0.31752949E+01 -0.29590032E+01 -0.27313094E+01
 -0.24989829E+01 -0.22688488E+01 -0.20476965E+01 -0.18421856E+01 -0.16587545E+01
 -0.15035461E+01 -0.13824410E+01 -0.13000783E+01 -0.12602789E+01 -0.12963786E+01
 -0.10948960E+01 -0.76329077E+00 -0.42961921E+00 -0.52919733E-01  0.00000000E+00
 PAW radial sets
         341   1.20588293416284     
(5E20.12)                                
 augmentation charges (non sperical)
  0.378638143717E+00  0.367880456261E+00 -0.164680901192E+00 -0.246557888129E+00 -0.246214894853E+00
 -0.333820212816E+00  0.367880456261E+00  0.357384501089E+00 -0.162060634404E+00 -0.242608484527E+00
 -0.241875765597E+00 -0.328140458274E+00 -0.164680901192E+00 -0.162060634404E+00 -0.138717413221E+00
 -0.217651933442E+00 -0.757130809154E-01 -0.150193398699E+00 -0.246557888129E+00 -0.242608484527E+00
 -0.217651933442E+00 -0.341583243721E+00 -0.119865897390E+00 -0.236493363635E+00 -0.246214894853E+00
 -0.241875765597E+00 -0.757130809154E-01 -0.119865897390E+00 -0.134346400872E-01 -0.572539942959E-01
 -0.333820212816E+00 -0.328140458274E+00 -0.150193398699E+00 -0.236493363635E+00 -0.572539942959E-01
 -0.142695014470E+00
 uccopancies in atom
  0.180000000729E+01  0.000000000000E+00  0.000000000000E+00  0.000000000000E+00  0.000000000000E+00
  0.000000000000E+00  0.000000000000E+00  0.000000000000E+00  0.000000000000E+00  0.000000000000E+00
  0.000000000000E+00  0.000000000000E+00  0.000000000000E+00  0.000000000000E+00  0.999999999617E+00
  0.000000000000E+00  0.000000000000E+00  0.000000000000E+00  0.000000000000E+00  0.000000000000E+00
  0.000000000000E+00  0.000000000000E+00  0.000000000000E+00  0.000000000000E+00  0.000000000000E+00
  0.000000000000E+00  0.000000000000E+00  0.000000000000E+00  0.000000000000E+00  0.000000000000E+00
  0.000000000000E+00  0.000000000000E+00  0.000000000000E+00  0.000000000000E+00  0.000000000000E+00
  0.000000000000E+00
 grid
  0.674052280246E-04  0.695970778845E-04  0.718602012338E-04  0.741969157087E-04  0.766096143089E-04
  0.791007678486E-04  0.816729274867E-04  0.843287273396E-04  0.870708871782E-04  0.899022152139E-04
  0.928256109741E-04  0.958440682714E-04  0.989606782699E-04  0.102178632651E-03  0.105501226880E-03
  0.108931863585E-03  0.112474056037E-03  0.116131431750E-03  0.119907736198E-03  0.123806836646E-03
  0.127832726114E-03  0.131989527463E-03  0.136281497623E-03  0.140713031945E-03  0.145288668708E-03
  0.150013093763E-03  0.154891145335E-03  0.159927818976E-03  0.165128272678E-03  0.170497832160E-03
  0.176041996322E-03  0.181766442872E-03  0.187677034142E-03  0.193779823095E-03  0.200081059521E-03
  0.206587196435E-03  0.213304896691E-03  0.220241039801E-03  0.227402728981E-03  0.234797298427E-03
  0.242432320824E-03  0.250315615103E-03  0.258455254445E-03  0.266859574553E-03  0.275537182184E-03
  0.284496963967E-03  0.293748095502E-03  0.303300050756E-03  0.313162611766E-03  0.323345878655E-03
  0.333860279980E-03  0.344716583405E-03  0.355925906735E-03  0.367499729295E-03  0.379449903692E-03
  0.391788667949E-03  0.404528658037E-03  0.417682920821E-03  0.431264927414E-03  0.445288586980E-03
  0.459768260969E-03  0.474718777834E-03  0.490155448211E-03  0.506094080598E-03  0.522550997549E-03
  0.539543052384E-03  0.557087646452E-03  0.575202746951E-03  0.593906905327E-03  0.613219276272E-03
  0.633159637341E-03  0.653748409207E-03  0.675006676572E-03  0.696956209758E-03  0.719619487006E-03
  0.743019717493E-03  0.767180865098E-03  0.792127672949E-03  0.817885688756E-03  0.844481290980E-03
  0.871941715839E-03  0.900295085210E-03  0.929570435419E-03  0.959797746984E-03  0.991007975314E-03
  0.102323308241E-02  0.105650606959E-02  0.109086101132E-02  0.112633309004E-02  0.116295863227E-02
  0.120077514576E-02  0.123982135794E-02  0.128013725552E-02  0.132176412552E-02  0.136474459748E-02
  0.140912268717E-02  0.145494384163E-02  0.150225498572E-02  0.155110457018E-02  0.160154262127E-02
  0.165362079196E-02  0.170739241483E-02  0.176291255674E-02  0.182023807516E-02  0.187942767642E-02
  0.194054197586E-02  0.200364355985E-02  0.206879704994E-02  0.213606916899E-02  0.220552880952E-02
  0.227724710429E-02  0.235129749908E-02  0.242775582798E-02  0.250670039100E-02  0.258821203426E-02
  0.267237423282E-02  0.275927317611E-02  0.284899785625E-02  0.294164015916E-02  0.303729495864E-02
  0.313606021357E-02  0.323803706820E-02  0.334332995574E-02  0.345204670532E-02  0.356429865237E-02
  0.368020075271E-02  0.379987170021E-02  0.392343404838E-02  0.405101433586E-02  0.418274321602E-02
  0.431875559073E-02  0.445919074857E-02  0.460419250739E-02  0.475390936167E-02  0.490849463456E-02
  0.506810663488E-02  0.523290881927E-02  0.540306995956E-02  0.557876431563E-02  0.576017181386E-02
  0.594747823138E-02  0.614087538632E-02  0.634056133427E-02  0.654674057110E-02  0.675962424235E-02
  0.697943035951E-02  0.720638402325E-02  0.744071765396E-02  0.768267122975E-02  0.793249253222E-02
  0.819043740022E-02  0.845676999183E-02  0.873176305490E-02  0.901569820636E-02  0.930886622062E-02
  0.961156732733E-02  0.992411151889E-02  0.102468188679E-01  0.105800198548E-01  0.109240557065E-01
  0.112792787459E-01  0.116460527524E-01  0.120247533345E-01  0.124157683149E-01  0.128194981269E-01
  0.132363562253E-01  0.136667695090E-01  0.141111787590E-01  0.145700390892E-01  0.150438204126E-01
  0.155330079227E-01  0.160381025902E-01  0.165596216762E-01  0.170980992620E-01  0.176540867954E-01
  0.182281536564E-01  0.188208877397E-01  0.194328960566E-01  0.200648053572E-01  0.207172627718E-01
  0.213909364739E-01  0.220865163642E-01  0.228047147773E-01  0.235462672110E-01  0.243119330800E-01
  0.251024964929E-01  0.259187670557E-01  0.267615807010E-01  0.276318005434E-01  0.285303177642E-01
  0.294580525234E-01  0.304159549026E-01  0.314050058775E-01  0.324262183228E-01  0.334806380491E-01
  0.345693448745E-01  0.356934537298E-01  0.368541158008E-01  0.380525197069E-01  0.392898927183E-01
  0.405675020133E-01  0.418866559752E-01  0.432487055331E-01  0.446550455447E-01  0.461071162251E-01
  0.476064046215E-01  0.491544461364E-01  0.507528260994E-01  0.524031813913E-01  0.541072021202E-01
  0.558666333522E-01  0.576832768986E-01  0.595589931612E-01  0.614957030373E-01  0.634953898870E-01
  0.655601015645E-01  0.676919525150E-01  0.698931259400E-01  0.721658760335E-01  0.745125302903E-01
  0.769354918893E-01  0.794372421550E-01  0.820203430982E-01  0.846874400400E-01  0.874412643208E-01
  0.902846360972E-01  0.932204672305E-01  0.962517642682E-01  0.993816315234E-01  0.102613274254E+00
  0.105950001944E+00  0.109395231694E+00  0.112952491721E+00  0.116625424970E+00  0.120417792845E+00
  0.124333479062E+00  0.128376493627E+00  0.132550976940E+00  0.136861204036E+00  0.141311588964E+00
  0.145906689308E+00  0.150651210852E+00  0.155550012400E+00  0.160608110753E+00  0.165830685847E+00
  0.171223086053E+00  0.176790833662E+00  0.182539630534E+00  0.188475363938E+00  0.194604112585E+00
  0.200932152848E+00  0.207465965195E+00  0.214212240818E+00  0.221177888496E+00  0.228370041658E+00
  0.235796065699E+00  0.243463565517E+00  0.251380393300E+00  0.259554656573E+00  0.267994726495E+00
  0.276709246435E+00  0.285707140824E+00  0.294997624292E+00  0.304590211105E+00  0.314494724910E+00
  0.324721308796E+00  0.335280435677E+00  0.346182919023E+00  0.357439923929E+00  0.369062978552E+00
  0.381063985915E+00  0.393455236098E+00  0.406249418825E+00  0.419459636457E+00  0.433099417411E+00
  0.447182730014E+00  0.461723996810E+00  0.476738109326E+00  0.492240443325E+00  0.508246874552E+00
  0.524773794991E+00  0.541838129654E+00  0.559457353910E+00  0.577649511383E+00  0.596433232434E+00
  0.615827753234E+00  0.635852935467E+00  0.656529286669E+00  0.677877981231E+00  0.699920882082E+00
  0.722680563079E+00  0.746180332122E+00  0.770444255031E+00  0.795497180181E+00  0.821364763958E+00
  0.848073497027E+00  0.875650731466E+00  0.904124708772E+00  0.933524588786E+00  0.963880479554E+00
  0.995223468161E+00  0.102758565257E+01  0.106100017448E+01  0.109550125328E+01  0.113112422109E+01
  0.116790555895E+01  0.120588293416E+01  0.124509523887E+01  0.128558262991E+01  0.132738656990E+01
  0.137054986972E+01  0.141511673238E+01  0.146113279824E+01  0.150864519175E+01  0.155770256978E+01
  0.160835517136E+01  0.166065486917E+01  0.171465522269E+01  0.177041153299E+01  0.182798089941E+01
  0.188742227800E+01  0.194879654194E+01  0.201216654383E+01  0.207759718010E+01  0.214515545742E+01
  0.221491056139E+01  0.228693392732E+01  0.236129931343E+01  0.243808287639E+01  0.251736324925E+01
  0.259922162207E+01  0.268374182495E+01  0.277101041398E+01  0.286111675982E+01  0.295415313923E+01
  0.305021482961E+01  0.314940020651E+01  0.325181084444E+01  0.335755162082E+01  0.346673082347E+01
  0.357946026141E+01
 aepotential
  0.108488370820E+05  0.108913436538E+05  0.109268575459E+05  0.109548995673E+05  0.109750158631E+05
  0.109867830878E+05  0.109898139636E+05  0.109837626791E+05  0.109683296283E+05  0.109432663521E+05
  0.109083794254E+05  0.108635342921E+05  0.108086580613E+05  0.107437417955E+05  0.106688419177E+05
  0.105840807467E+05  0.104896462158E+05  0.103857906042E+05  0.102728284374E+05  0.101511334969E+05
  0.100211351061E+05  0.988331321817E+04  0.973819391343E+04  0.958634260264E+04  0.942835878062E+04
  0.926486857911E+04  0.909651867824E+04  0.892396876360E+04  0.874788520797E+04  0.856893405704E+04
  0.838777477077E+04  0.820505404366E+04  0.802140042103E+04  0.783741911996E+04  0.765368757910E+04
  0.747075169595E+04  0.728912267119E+04  0.710927440879E+04  0.693164179567E+04  0.675661936803E+04
  0.658456078238E+04  0.641577869769E+04  0.625054526868E+04  0.608909301691E+04  0.593161615853E+04
  0.577827221880E+04  0.562918395364E+04  0.548444146760E+04  0.534410450031E+04  0.520820481551E+04
  0.507674865047E+04  0.494971917950E+04  0.482707895593E+04  0.470877229854E+04  0.459472759630E+04
  0.448485950909E+04  0.437907104756E+04  0.427725551961E+04  0.417929833501E+04  0.408507866369E+04
  0.399447094572E+04  0.390734625440E+04  0.382357351577E+04  0.374302058934E+04  0.366555521700E+04
  0.359104584767E+04  0.351936234482E+04  0.345037658949E+04  0.338396297872E+04  0.331999884377E+04
  0.325836477772E+04  0.319894489734E+04  0.314162703981E+04  0.308630289968E+04  0.303286812242E+04
  0.298122234700E+04  0.293126922306E+04  0.288291638560E+04  0.283607540889E+04  0.279066174511E+04
  0.274659463106E+04  0.270379699330E+04  0.266219533931E+04  0.262171963614E+04  0.258230318879E+04
  0.254388251250E+04  0.250639720126E+04  0.246978980143E+04  0.243400567804E+04  0.239899289114E+04
  0.236470206692E+04  0.233108627960E+04  0.229810092984E+04  0.226570363366E+04  0.223385411161E+04
  0.220251408433E+04  0.217164717351E+04  0.214121880624E+04  0.211119612666E+04  0.208154791002E+04
  0.205224448450E+04  0.202325765570E+04  0.199456063757E+04  0.196612798786E+04  0.193793554723E+04
  0.190996038524E+04  0.188218074823E+04  0.185457601390E+04  0.182712664920E+04  0.179981417211E+04
  0.177262111920E+04  0.174553101533E+04  0.171852834920E+04  0.169159855195E+04  0.166472798027E+04
  0.163790390343E+04  0.161111449442E+04  0.158434882549E+04  0.155759686740E+04  0.153084949363E+04
  0.150409848854E+04  0.147733656037E+04  0.145055735884E+04  0.142375549789E+04  0.139692658332E+04
  0.137006724588E+04  0.134317517986E+04  0.131624918729E+04  0.128928922801E+04  0.126229647543E+04
  0.123527337809E+04  0.120822372655E+04  0.118115272510E+04  0.115406706763E+04  0.112697501576E+04
  0.109988647806E+04  0.107281308690E+04  0.104576827008E+04  0.101876731214E+04  0.991827399822E+03
  0.964967644759E+03  0.938209074383E+03  0.911574582994E+03  0.885088831436E+03  0.858778087044E+03
  0.832669995103E+03  0.806793278419E+03  0.781177367958E+03  0.755851980079E+03  0.730846671813E+03
  0.706190430475E+03  0.681911382770E+03  0.658036742944E+03  0.634593153379E+03  0.611607594055E+03
  0.589109032617E+03  0.567130934069E+03  0.545714616515E+03  0.524913210510E+03  0.504795647369E+03
  0.485449717886E+03  0.466982911149E+03  0.449519646512E+03  0.433193938189E+03  0.418136659422E+03
  0.404460532756E+03  0.392242081226E+03  0.381507298141E+03  0.372222318318E+03  0.364291831305E+03
  0.357565278277E+03  0.351849184050E+03  0.346922975433E+03  0.342555594345E+03  0.338520770024E+03
  0.334609493973E+03  0.330638822464E+03  0.326456694696E+03  0.321943075153E+03  0.317008253893E+03
  0.311589385206E+03  0.305646275605E+03  0.299157139433E+03  0.292114770210E+03  0.284523333887E+03
  0.276395861186E+03  0.267752421949E+03  0.258618906768E+03  0.249026319726E+03  0.239010459521E+03
  0.228611875190E+03  0.217875977448E+03  0.206853199685E+03  0.195599105139E+03  0.184174356194E+03
  0.172644491020E+03  0.161079515713E+03  0.149553422928E+03  0.138143893469E+03  0.126932580714E+03
  0.116006439544E+03  0.105460349060E+03  0.954006331077E+02  0.859479103776E+02  0.772363875552E+02
  0.694061050745E+02  0.625859095853E+02  0.568683190610E+02  0.522816321216E+02  0.487675165020E+02
  0.461734064539E+02  0.442678756461E+02  0.427807586182E+02  0.414539920557E+02  0.400786535784E+02
  0.385031459597E+02  0.366200876466E+02  0.343504140039E+02  0.316354240619E+02  0.284357336219E+02
  0.247317188045E+02  0.205222049049E+02  0.158214268857E+02  0.106556593707E+02  0.506064649989E+01
 -0.919796210504E+00 -0.723419504565E+01 -0.138232927415E+02 -0.206199249298E+02 -0.275494395699E+02
 -0.345310878874E+02 -0.414803935066E+02 -0.483115692600E+02 -0.549375465475E+02 -0.612638870946E+02
 -0.671738558422E+02 -0.725083101273E+02 -0.770560172862E+02 -0.805798105980E+02 -0.828988030654E+02
 -0.840165829793E+02 -0.842177460203E+02 -0.839921388266E+02 -0.837760360755E+02 -0.837657190082E+02
 -0.839676328716E+02 -0.843412963880E+02 -0.848787963509E+02 -0.856107666554E+02 -0.865815465112E+02
 -0.878252015650E+02 -0.893546780756E+02 -0.911627691510E+02 -0.932283658134E+02 -0.955227674893E+02
 -0.980139545835E+02 -0.100668799092E+03 -0.103453895404E+03 -0.106335676941E+03 -0.109280275723E+03
 -0.112253401012E+03 -0.115220400072E+03 -0.118146565818E+03 -0.120997738541E+03 -0.123740994281E+03
 -0.126345272991E+03 -0.128781524389E+03 -0.131022461344E+03 -0.133041896856E+03 -0.134815088547E+03
 -0.136321209205E+03 -0.137548536246E+03 -0.138500674012E+03 -0.139199487905E+03 -0.139682751648E+03
 -0.139994636092E+03 -0.140175820993E+03 -0.140256741402E+03 -0.140256045447E+03 -0.140182556445E+03
 -0.140038253827E+03 -0.139820793942E+03 -0.139525219719E+03 -0.139145087634E+03 -0.138673271910E+03
 -0.138102601442E+03 -0.137426383947E+03 -0.136638773533E+03 -0.135735151760E+03 -0.134712229732E+03
 -0.133568203292E+03 -0.132302793400E+03 -0.130917185227E+03 -0.129414024863E+03 -0.127797258867E+03
 -0.126072104764E+03 -0.124244833672E+03 -0.122322662707E+03 -0.120313586110E+03 -0.118226211526E+03
 -0.116069592972E+03 -0.113853066737E+03 -0.111586089941E+03 -0.109278091664E+03 -0.106938331053E+03
 -0.104575773854E+03 -0.102198983023E+03 -0.998160312485E+02 -0.974344285244E+02 -0.950610709242E+02
 -0.927022025690E+02 -0.903633911598E+02 -0.880495106479E+02 -0.857647298599E+02 -0.835125081286E+02
 -0.812955936808E+02 -0.791160386297E+02 -0.769752285833E+02 -0.748739432895E+02 -0.728124468580E+02
 -0.707906159707E+02 -0.688080850466E+02 -0.668644144577E+02 -0.649592435812E+02 -0.630924215755E+02
 -0.612640972033E+02 -0.594747598006E+02 -0.577252296279E+02 -0.560166012880E+02 -0.543501476133E+02
 -0.527271939621E+02 -0.511489751126E+02 -0.496164893813E+02 -0.481303667719E+02 -0.466907685485E+02
 -0.452973330032E+02 -0.439491757189E+02 -0.426449433145E+02 -0.413829100845E+02 -0.401611000932E+02
 -0.389774150688E+02
 core charge-density
  0.206024080351E+00  0.217017088797E+00  0.228591450470E+00  0.240777475056E+00  0.253607014341E+00
  0.267113537322E+00  0.281332208677E+00  0.296299970726E+00  0.312055629000E+00  0.328639941552E+00
  0.346095712127E+00  0.364467887340E+00  0.383803657965E+00  0.404152564490E+00  0.425566607051E+00
  0.448100359879E+00  0.471811090378E+00  0.496758882975E+00  0.523006767835E+00  0.550620854578E+00
  0.579670471095E+00  0.610228307571E+00  0.642370565795E+00  0.676177113868E+00  0.711731646342E+00
  0.749121849892E+00  0.788439574527E+00  0.829781010394E+00  0.873246870167E+00  0.918942577007E+00
  0.966978458065E+00  0.101746994345E+01  0.107053777054E+01  0.112630819358E+01  0.118491319831E+01
  0.124649072141E+01  0.131118487463E+01  0.137914617307E+01  0.145053176748E+01  0.152550567997E+01
  0.160423904272E+01  0.168691033908E+01  0.177370564644E+01  0.186481888008E+01  0.196045203716E+01
  0.206081544006E+01  0.216612797768E+01  0.227661734394E+01  0.239252027181E+01  0.251408276166E+01
  0.264156030220E+01  0.277521808231E+01  0.291533119180E+01  0.306218480897E+01  0.321607437271E+01
  0.337730573647E+01  0.354619530150E+01  0.372307012634E+01  0.390826800919E+01  0.410213753987E+01
  0.430503811733E+01  0.451733992897E+01  0.473942388708E+01  0.497168151788E+01  0.521451479824E+01
  0.546833593446E+01  0.573356707773E+01  0.601063997004E+01  0.629999551422E+01  0.660208326126E+01
  0.691736080804E+01  0.724629309760E+01  0.758935161458E+01  0.794701346729E+01  0.831976034813E+01
  0.870807736352E+01  0.911245172429E+01  0.953337128720E+01  0.997132293815E+01  0.104267908074E+02
  0.109002543072E+02  0.113921859820E+02  0.119030491615E+02  0.124332954078E+02  0.129833617466E+02
  0.135536676744E+02  0.141446119332E+02  0.147565690459E+02  0.153898856058E+02  0.160448763143E+02
  0.167218197646E+02  0.174209539670E+02  0.181424716183E+02  0.188865151143E+02  0.196531713127E+02
  0.204424660522E+02  0.212543584393E+02  0.220887349175E+02  0.229454031372E+02  0.238240856498E+02
  0.247244134553E+02  0.256459194361E+02  0.265880317179E+02  0.275500670048E+02  0.285312239413E+02
  0.295305765642E+02  0.305470679123E+02  0.315795038733E+02  0.326265473537E+02  0.336867128689E+02
  0.347583616586E+02  0.358396974425E+02  0.369287629431E+02  0.380234373077E+02  0.391214345763E+02
  0.402203033462E+02  0.413174277963E+02  0.424100302376E+02  0.434951753658E+02  0.445697763944E+02
  0.456306032487E+02  0.466742930029E+02  0.476973627401E+02  0.486962250054E+02  0.496672060187E+02
  0.506065667952E+02  0.515105273056E+02  0.523752937843E+02  0.531970892635E+02  0.539721873762E+02
  0.546969494307E+02  0.553678647059E+02  0.559815938641E+02  0.565350153129E+02  0.570252742742E+02
  0.574498342418E+02  0.578065304209E+02  0.580936246505E+02  0.583098612097E+02  0.584545228057E+02
  0.585274859334E+02  0.585292746863E+02  0.584611119917E+02  0.583249671333E+02  0.581235983281E+02
  0.578605890296E+02  0.575403765545E+02  0.571682715655E+02  0.567504669073E+02  0.562940342743E+02
  0.558069072131E+02  0.552978490113E+02  0.547764041230E+02  0.542528319205E+02  0.537380217554E+02
  0.532433885536E+02  0.527807484715E+02  0.523621744988E+02  0.519998323082E+02  0.517057971280E+02
  0.514918529361E+02  0.513692758564E+02  0.513486042551E+02  0.514393986929E+02  0.516499955365E+02
  0.519872589993E+02  0.524563361038E+02  0.530604215330E+02  0.538005378598E+02  0.546753385144E+02
  0.556809406999E+02  0.568107957557E+02  0.580556044826E+02  0.594032847520E+02  0.608389982803E+02
  0.623452427476E+02  0.639020144446E+02  0.654870453357E+02  0.670761168328E+02  0.686434506738E+02
  0.701621751180E+02  0.716048622314E+02  0.729441293649E+02  0.741532951063E+02  0.752070770609E+02
  0.760823158989E+02  0.767587072851E+02  0.772195207081E+02  0.774522819940E+02  0.774493945374E+02
  0.772086731943E+02  0.767337644785E+02  0.760344273424E+02  0.751266505245E+02  0.740325853198E+02
  0.727802767370E+02  0.714031813754E+02  0.699394669501E+02  0.684310961045E+02  0.669227058037E+02
  0.654603029299E+02  0.640898063511E+02  0.628554753217E+02  0.617982731027E+02  0.609542227426E+02
  0.603528185244E+02  0.600155612735E+02  0.599546880433E+02  0.601721663194E+02  0.606590186608E+02
  0.613950373760E+02  0.623489364684E+02  0.634789714567E+02  0.647340386947E+02  0.660552425523E+02
  0.673778918643E+02  0.686338682194E+02  0.697542856681E+02  0.706723413962E+02  0.713262384740E+02
  0.716620477735E+02  0.716363685783E+02  0.712186475434E+02  0.703930236380E+02  0.691595824193E+02
  0.675349260063E+02  0.655519947819E+02  0.632591121377E+02  0.607182629620E+02  0.580026582427E+02
  0.551936797886E+02  0.523773381919E+02  0.496404109007E+02  0.470664528356E+02  0.447318864757E+02
  0.427023796657E+02  0.410297064355E+02  0.397492603332E+02  0.388783543288E+02  0.384154045252E+02
  0.383400602177E+02  0.386143121438E+02  0.391845677914E+02  0.399845933260E+02  0.409390867122E+02
  0.419675983185E+02  0.429885556603E+02  0.439232092827E+02  0.446993060592E+02  0.452543083238E+02
  0.455379843880E+02  0.455142351118E+02  0.451620775795E+02  0.444757710954E+02  0.434641317087E+02
  0.421491323142E+02  0.405639232075E+02  0.387504322143E+02  0.367567146176E+02  0.346342220872E+02
  0.324351483025E+02  0.302099890380E+02  0.280054282669E+02  0.258626315322E+02  0.238159980871E+02
  0.218923891066E+02  0.201108222091E+02  0.184825942226E+02  0.170117791533E+02  0.156960233444E+02
  0.145275604093E+02  0.134943637752E+02  0.125813603046E+02  0.117716378281E+02  0.110475788145E+02
  0.103918830490E+02  0.978842065345E+01  0.922289363982E+01  0.868329099270E+01  0.816014049960E+01
  0.764657407954E+01  0.713823252399E+01  0.663304104170E+01  0.613088949891E+01  0.563325160583E+01
  0.514277560265E+01  0.466287564115E+01  0.419734845803E+01  0.375003323859E+01  0.332452937829E+01
  0.292397718921E+01  0.255090426893E+01  0.220713476764E+01  0.189375508031E+01  0.161112771863E+01
  0.135894266733E+01  0.113629851552E+01  0.941800108004E+00  0.773665616698E+00  0.629834869697E+00
  0.508072730901E+00  0.406062916375E+00  0.321489172616E+00  0.252102134227E+00  0.195771364581E+00
  0.150523030656E+00  0.114564365799E+00  0.862965432756E-01  0.643178444881E-01  0.474190929544E-01
  0.345732753675E-01  0.249211218797E-01  0.177542036762E-01  0.124968562442E-01  0.868797614823E-02
  0.596348585437E-02  0.404002844711E-02  0.270025037406E-02  0.177986003358E-02  0.115651432587E-02
  0.740483017382E-03  0.466968992639E-03  0.289917132850E-03  0.177121097485E-03  0.106430950608E-03
  0.628708930046E-04  0.364913038868E-04  0.207994311421E-04  0.116356164949E-04  0.638476897443E-05
  0.343438183083E-05  0.180974200925E-05  0.933584744014E-06  0.471141573797E-06  0.232428323028E-06
  0.112004185388E-06  0.526797476677E-07  0.241637147266E-07  0.108001785198E-07  0.469972812385E-08
  0.198933231171E-08
 kinetic energy-density
  0.555970643287E+07  0.551371324342E+07  0.546855120974E+07  0.542422084665E+07  0.538072266842E+07
  0.533805720511E+07  0.529622502358E+07  0.525522674119E+07  0.521506305102E+07  0.517573473616E+07
  0.513724269024E+07  0.509958793857E+07  0.506277165197E+07  0.502679517278E+07  0.499166002635E+07
  0.495736794804E+07  0.492392089390E+07  0.489132106094E+07  0.485957090620E+07  0.482867316765E+07
  0.479863085052E+07  0.476944730759E+07  0.474112616445E+07  0.471367141321E+07  0.468708736196E+07
  0.466137870556E+07  0.463655046234E+07  0.461260805818E+07  0.458955727416E+07  0.456740428776E+07
  0.454615566018E+07  0.452581834704E+07  0.450639971506E+07  0.448790751516E+07  0.447034991078E+07
  0.445373547229E+07  0.443807317349E+07  0.442337240133E+07  0.440964294742E+07  0.439689501812E+07
  0.438513922921E+07  0.437438660847E+07  0.436464859586E+07  0.435593704323E+07  0.434826421544E+07
  0.434164278881E+07  0.433608585173E+07  0.433160690267E+07  0.432821984953E+07  0.432593900719E+07
  0.432477909439E+07  0.432475523036E+07  0.432588292951E+07  0.432817809528E+07  0.433165701241E+07
  0.433633633741E+07  0.434223308718E+07  0.434936462534E+07  0.435774864624E+07  0.436740315608E+07
  0.437834645123E+07  0.439059709295E+07  0.440417387884E+07  0.441909581002E+07  0.443538205414E+07
  0.445305190374E+07  0.447212472907E+07  0.449261992663E+07  0.451455685983E+07  0.453795479549E+07
  0.456283283263E+07  0.458920982158E+07  0.461710428166E+07  0.464653430134E+07  0.467751743953E+07
  0.471007060823E+07  0.474420995255E+07  0.477995071725E+07  0.481730709808E+07  0.485629209076E+07
  0.489691731918E+07  0.493919285334E+07  0.498312701693E+07  0.502872617560E+07  0.507599451485E+07
  0.512493380220E+07  0.517554312945E+07  0.522781864791E+07  0.528175327577E+07  0.533733640181E+07
  0.539455355986E+07  0.545338609594E+07  0.551381081411E+07  0.557579960526E+07  0.563931906323E+07
  0.570433008106E+07  0.577078743579E+07  0.583863935583E+07  0.590782707955E+07  0.597828439819E+07
  0.604993719322E+07  0.612270296365E+07  0.619649034959E+07  0.627119865468E+07  0.634671736803E+07
  0.642292569359E+07  0.649969208805E+07  0.657687381250E+07  0.665431650599E+07  0.673185378208E+07
  0.680930686019E+07  0.688648423448E+07  0.696318139014E+07  0.703918057563E+07  0.711425063793E+07
  0.718814693253E+07  0.726061131564E+07  0.733137223167E+07  0.740014490424E+07  0.746663164406E+07
  0.753052228375E+07  0.759149475186E+07  0.764921579723E+07  0.770334187512E+07  0.775352020663E+07
  0.779939002090E+07  0.784058399063E+07  0.787672986861E+07  0.790745233327E+07  0.793237504817E+07
  0.795112293845E+07  0.796332468796E+07  0.796861544943E+07  0.796663977296E+07  0.795705473193E+07
  0.793953324659E+07  0.791376757991E+07  0.787947298903E+07  0.783639150749E+07  0.778429582191E+07
  0.772299321485E+07  0.765232952411E+07  0.757219307695E+07  0.748251854480E+07  0.738329065929E+07
  0.727454773077E+07  0.715638489886E+07  0.702895704790E+07  0.689248131366E+07  0.674723910782E+07
  0.659357758564E+07  0.643191048579E+07  0.626271827118E+07  0.608654750755E+07  0.590400941877E+07
  0.571577757114E+07  0.552258464006E+07  0.532521823137E+07  0.512451573261E+07  0.492135818888E+07
  0.471666320822E+07  0.451137692316E+07  0.430646505632E+07  0.410290317281E+07  0.390166613643E+07
  0.370371738587E+07  0.350999709195E+07  0.332141084140E+07  0.313881797252E+07  0.296302019442E+07
  0.279475061157E+07  0.263466334190E+07  0.248332391501E+07  0.234120064019E+07  0.220865713697E+07
  0.208594622055E+07  0.197320532906E+07  0.187045366434E+07  0.177759119675E+07  0.169439965566E+07
  0.162054558767E+07  0.155558552544E+07  0.149897326018E+07  0.145006916457E+07  0.140815145917E+07
  0.137242926859E+07  0.134205726088E+07  0.131615161800E+07  0.129380704129E+07  0.127411445310E+07
  0.125617902496E+07  0.123913812928E+07  0.122217879535E+07  0.120455423328E+07  0.118559899179E+07
  0.116474232035E+07  0.114151933375E+07  0.111557960744E+07  0.108669288944E+07  0.105475167745E+07
  0.101977049293E+07  0.981881775001E+06  0.941328419459E+06  0.898453089726E+06  0.853684538713E+06
  0.807521294968E+06  0.760513194394E+06  0.713241372852E+06  0.666297424137E+06  0.620262655020E+06
  0.575687956847E+06  0.533075373273E+06  0.492862089413E+06  0.455406633909E+06  0.420978873613E+06
  0.389753248886E+06  0.361805866445E+06  0.337115522443E+06  0.315568624704E+06  0.296967792195E+06
  0.281043715211E+06  0.267469686009E+06  0.255878068073E+06  0.245877880295E+06  0.237072627523E+06
  0.229077518714E+06  0.221535265209E+06  0.214129748671E+06  0.206596971728E+06  0.198732860907E+06
  0.190397658805E+06  0.181516829096E+06  0.172078585214E+06  0.162128343053E+06  0.151760568453E+06
  0.141108620449E+06  0.130333255405E+06  0.119610448306E+06  0.109119196673E+06  0.990299055263E+05
  0.894941790098E+05  0.806368239754E+05  0.725504633579E+05  0.652932049439E+05  0.588885463303E+05
  0.533271938236E+05  0.485700744523E+05  0.445530880433E+05  0.411927900119E+05  0.383927696005E+05
  0.360501816966E+05  0.340619749206E+05  0.323304183935E+05  0.307676168379E+05  0.292988157334E+05
  0.278644208932E+05  0.264207712895E+05  0.249397974662E+05  0.234077635201E+05  0.218233271948E+05
  0.201951628451E+05  0.185393787113E+05  0.168769403638E+05  0.152312484493E+05  0.136260210212E+05
  0.120835389310E+05  0.106233258550E+05  0.926121807643E+04  0.800887286856E+04  0.687361378499E+04
  0.585857640237E+04  0.496308111417E+04  0.418316388912E+04  0.351221752418E+04  0.294166135540E+04
  0.246161693084E+04  0.206154099418E+04  0.173077117372E+04  0.145897213131E+04  0.123647376437E+04
  0.105450536386E+04  0.905335954966E+03  0.782333789976E+03  0.679959646920E+03  0.593708542285E+03
  0.520014682606E+03  0.456133084159E+03  0.400010406805E+03  0.350154652771E+03  0.305511495918E+03
  0.265353744771E+03  0.229186278593E+03  0.196668214984E+03  0.167552126003E+03  0.141640969150E+03
  0.118755141703E+03  0.987152479283E+02  0.813317453369E+02  0.664018191900E+02  0.537107868684E+02
  0.430362490625E+02  0.341535551274E+02  0.268415184972E+02  0.208876565390E+02  0.160925149579E+02
  0.122728681228E+02  0.926375786346E+01  0.691945232339E+01  0.511347843170E+01  0.373791723181E+01
  0.270215861080E+01  0.193130046022E+01  0.136435371528E+01  0.952385449633E+00  0.656701456578E+00
  0.447140496543E+00  0.300526732356E+00  0.199305408116E+00  0.130370082007E+00  0.840772886580E-01
  0.534360296455E-01  0.334542787337E-01  0.206221219805E-01  0.125105509524E-01  0.746574082216E-02
  0.438035070177E-02  0.252559436307E-02  0.143023748776E-02  0.795067594176E-03  0.433612382369E-03
  0.231866964785E-03  0.121489782158E-03  0.623323886681E-04  0.312935854550E-04  0.153618600765E-04
  0.736790668901E-05  0.344990880687E-05  0.157569903093E-05  0.701405045806E-06  0.304027053754E-06
  0.128207036312E-06
 mkinetic energy-density pseudized
  0.245030997570E-05  0.261225683798E-05  0.278490715662E-05  0.296896834870E-05  0.316519458619E-05
  0.337438988606E-05  0.359741140471E-05  0.383517295007E-05  0.408864872578E-05  0.435887732296E-05
  0.464696597569E-05  0.495409509778E-05  0.528152311944E-05  0.563059164351E-05  0.600273094257E-05
  0.639946581934E-05  0.682242185438E-05  0.727333206673E-05  0.775404401482E-05  0.826652736660E-05
  0.881288197006E-05  0.939534645717E-05  0.100163074164E-04  0.106783091714E-04  0.113840642066E-04
  0.121364642804E-04  0.129385922749E-04  0.137937348269E-04  0.147053957948E-04  0.156773106156E-04
  0.167134616097E-04  0.178180942989E-04  0.189957348013E-04  0.202512083770E-04  0.215896591987E-04
  0.230165714297E-04  0.245377916947E-04  0.261595530352E-04  0.278885004493E-04  0.297317181186E-04
  0.316967584345E-04  0.337916729439E-04  0.360250453391E-04  0.384060266284E-04  0.409443726317E-04
  0.436504839534E-04  0.465354485978E-04  0.496110874013E-04  0.528900024662E-04  0.563856287965E-04
  0.601122893464E-04  0.640852537069E-04  0.683208006704E-04  0.728362849318E-04  0.776502081966E-04
  0.827822949894E-04  0.882535734725E-04  0.940864616063E-04  0.100304859003E-03  0.106934244853E-03
  0.114001782322E-03  0.121536429847E-03  0.129569059792E-03  0.138132584938E-03  0.147262093345E-03
  0.156994992115E-03  0.167371160660E-03  0.178433114108E-03  0.190226177497E-03  0.202798671485E-03
  0.216202110340E-03  0.230491413008E-03  0.245725128134E-03  0.261965673952E-03  0.279279594032E-03
  0.297737829932E-03  0.317416011861E-03  0.338394768561E-03  0.360760057665E-03  0.384603517884E-03
  0.410022844482E-03  0.437122189549E-03  0.466012588745E-03  0.496812416234E-03  0.529647869688E-03
  0.564653487348E-03  0.601972699251E-03  0.641758414887E-03  0.684173649698E-03  0.729392192974E-03
  0.777599319890E-03  0.828992550603E-03  0.883782459506E-03  0.942193537971E-03  0.100446511410E-02
  0.107085233327E-02  0.114162720344E-02  0.121707970959E-02  0.129751900176E-02  0.138327466163E-02
  0.147469805276E-02  0.157216376009E-02  0.167607112455E-02  0.178684587906E-02  0.190494189268E-02
  0.203084302994E-02  0.216506513308E-02  0.230815813529E-02  0.246070831346E-02  0.262334068996E-02
  0.279672159293E-02  0.298156138585E-02  0.317861737740E-02  0.338869692357E-02  0.361266073473E-02
  0.385142640117E-02  0.410597215153E-02  0.437734085953E-02  0.466664431537E-02  0.497506777931E-02
  0.530387483595E-02  0.565441256923E-02  0.602811707919E-02  0.642651936305E-02  0.685125158476E-02
  0.730405375851E-02  0.778678087365E-02  0.830141049003E-02  0.885005083486E-02  0.943494943411E-02
  0.100585023139E-01  0.107232638089E-01  0.114319570188E-01  0.121874849544E-01  0.129929424193E-01
  0.138516286763E-01  0.147670609486E-01  0.157429888128E-01  0.167834095402E-01  0.178925844514E-01
  0.190750563485E-01  0.203356680969E-01  0.216795824329E-01  0.231123030762E-01  0.246396972346E-01
  0.262680195915E-01  0.280039378736E-01  0.298545601033E-01  0.318274636455E-01  0.339307261666E-01
  0.361729586326E-01  0.385633404768E-01  0.411116570832E-01  0.438283397335E-01  0.467245081816E-01
  0.498120160254E-01  0.531034990600E-01  0.566124268067E-01  0.603531574239E-01  0.643409962214E-01
  0.685922580127E-01  0.731243335538E-01  0.779557603354E-01  0.831062980096E-01  0.885970087530E-01
  0.944503428839E-01  0.100690230075E+00  0.107342176520E+00  0.114433368443E+00  0.121992782352E+00
  0.130051302473E+00  0.138641845825E+00  0.147799495423E+00  0.157561642129E+00  0.167968135699E+00
  0.179061445613E+00  0.190886832301E+00  0.203492529427E+00  0.216929937923E+00  0.231253832514E+00
  0.246522581501E+00  0.262798380643E+00  0.280147501997E+00  0.298640558648E+00  0.318352786288E+00
  0.339364342694E+00  0.361760626159E+00  0.385632614048E+00  0.411077222659E+00  0.438197689659E+00
  0.467103980434E+00  0.497913219727E+00  0.530750150040E+00  0.565747618328E+00  0.603047092569E+00
  0.642799209890E+00  0.685164357979E+00  0.730313291580E+00  0.778427785938E+00  0.829701329135E+00
  0.884339855290E+00  0.942562520665E+00  0.100460252478E+01  0.107070797863E+01  0.114114282220E+01
  0.121618779341E+01  0.129614145062E+01  0.138132125092E+01  0.147206468626E+01  0.156873047933E+01
  0.167169984133E+01  0.178137779322E+01  0.189819455202E+01  0.202260698369E+01  0.215510012339E+01
  0.229618876396E+01  0.244641911279E+01  0.260637051666E+01  0.277665725373E+01  0.295793039074E+01
  0.315087970295E+01  0.335623565284E+01  0.357477142277E+01  0.380730499495E+01  0.405470127066E+01
  0.431787421860E+01  0.459778903975E+01  0.489546433405E+01  0.521197425056E+01  0.554845059995E+01
  0.590608490387E+01  0.628613035149E+01  0.668990362849E+01  0.711878657809E+01  0.757422764718E+01
  0.805774306364E+01  0.857091768269E+01  0.911540543098E+01  0.969292926722E+01  0.103052805668E+02
  0.109543178252E+02  0.116419645619E+02  0.123702062898E+02  0.131410864010E+02  0.139567007986E+02
  0.148191910876E+02  0.157307361141E+02  0.166935416215E+02  0.177098277659E+02  0.187818142108E+02
  0.199117024906E+02  0.211016553098E+02  0.223537724136E+02  0.236700626420E+02  0.250524117514E+02
  0.265025455669E+02  0.280219880077E+02  0.296120135143E+02  0.312735934009E+02  0.330073356590E+02
  0.348134177557E+02  0.366915120061E+02  0.386407031516E+02  0.406593978609E+02  0.427452259863E+02
  0.448949335592E+02  0.471042677173E+02  0.493678540106E+02  0.516790668644E+02  0.540298943784E+02
  0.564107991388E+02  0.588105773100E+02  0.612162189841E+02  0.636127735946E+02  0.659832251613E+02
  0.683083832371E+02  0.705667966598E+02  0.727346985801E+02  0.747859927175E+02  0.766922923511E+02
  0.784230251415E+02  0.799456184193E+02  0.812257809620E+02  0.822278983721E+02  0.829155597692E+02
  0.832522333841E+02  0.832021074761E+02  0.827311104218E+02  0.818081193989E+02  0.804063602916E+02
  0.785049917005E+02  0.760908526396E+02  0.731603360011E+02  0.697213276194E+02  0.657951233086E+02
  0.614182034241E+02  0.566437065522E+02  0.515424017508E+02  0.462029141511E+02  0.407309147347E+02
  0.352469463476E+02  0.298825311832E+02  0.247741990440E+02  0.200551023739E+02  0.158439577156E+02
  0.122311907174E+02  0.926238152790E+01  0.691945232339E+01  0.511347843170E+01  0.373791723181E+01
  0.270215861080E+01  0.193130046022E+01  0.136435371528E+01  0.952385449633E+00  0.656701456578E+00
  0.447140496543E+00  0.300526732356E+00  0.199305408116E+00  0.130370082007E+00  0.840772886580E-01
  0.534360296455E-01  0.334542787337E-01  0.206221219805E-01  0.125105509524E-01  0.746574082216E-02
  0.438035070177E-02  0.252559436307E-02  0.143023748776E-02  0.795067594176E-03  0.433612382369E-03
  0.231866964785E-03  0.121489782158E-03  0.623323886681E-04  0.312935854550E-04  0.153618600765E-04
  0.736790668901E-05  0.344990880687E-05  0.157569903093E-05  0.701405045806E-06  0.304027053754E-06
  0.128207036312E-06
 local pseudopotential core
 -0.276695190612E+03 -0.276695305264E+03 -0.276695416300E+03 -0.276695523835E+03 -0.276695627977E+03
 -0.276695728835E+03 -0.276695826510E+03 -0.276695921103E+03 -0.276696012710E+03 -0.276696101424E+03
 -0.276696187338E+03 -0.276696270536E+03 -0.276696351106E+03 -0.276696429129E+03 -0.276696504685E+03
 -0.276696577851E+03 -0.276696648701E+03 -0.276696717308E+03 -0.276696783742E+03 -0.276696848069E+03
 -0.276696910356E+03 -0.276696970666E+03 -0.276697029060E+03 -0.276697085597E+03 -0.276697140335E+03
 -0.276697193328E+03 -0.276697244631E+03 -0.276697294296E+03 -0.276697342372E+03 -0.276697388908E+03
 -0.276697433951E+03 -0.276697477545E+03 -0.276697519735E+03 -0.276697560563E+03 -0.276697600069E+03
 -0.276697638293E+03 -0.276697675272E+03 -0.276697711044E+03 -0.276697745642E+03 -0.276697779102E+03
 -0.276697811455E+03 -0.276697842733E+03 -0.276697872966E+03 -0.276697902184E+03 -0.276697930413E+03
 -0.276697957681E+03 -0.276697984013E+03 -0.276698009434E+03 -0.276698033966E+03 -0.276698057632E+03
 -0.276698080453E+03 -0.276698102449E+03 -0.276698123638E+03 -0.276698144040E+03 -0.276698163670E+03
 -0.276698182545E+03 -0.276698200679E+03 -0.276698218086E+03 -0.276698234778E+03 -0.276698250767E+03
 -0.276698266063E+03 -0.276698280676E+03 -0.276698294614E+03 -0.276698307883E+03 -0.276698320491E+03
 -0.276698332441E+03 -0.276698343737E+03 -0.276698354381E+03 -0.276698364374E+03 -0.276698373716E+03
 -0.276698382406E+03 -0.276698390439E+03 -0.276698397811E+03 -0.276698404517E+03 -0.276698410548E+03
 -0.276698415896E+03 -0.276698420548E+03 -0.276698424492E+03 -0.276698427714E+03 -0.276698430196E+03
 -0.276698431920E+03 -0.276698432864E+03 -0.276698433006E+03 -0.276698432318E+03 -0.276698430774E+03
 -0.276698428342E+03 -0.276698424987E+03 -0.276698420673E+03 -0.276698415361E+03 -0.276698409005E+03
 -0.276698401559E+03 -0.276698392973E+03 -0.276698383191E+03 -0.276698372154E+03 -0.276698359798E+03
 -0.276698346054E+03 -0.276698330850E+03 -0.276698314105E+03 -0.276698295734E+03 -0.276698275648E+03
 -0.276698253747E+03 -0.276698229928E+03 -0.276698204079E+03 -0.276698176079E+03 -0.276698145800E+03
 -0.276698113106E+03 -0.276698077850E+03 -0.276698039874E+03 -0.276697999013E+03 -0.276697955085E+03
 -0.276697907902E+03 -0.276697857258E+03 -0.276697802935E+03 -0.276697744701E+03 -0.276697682308E+03
 -0.276697615490E+03 -0.276697543964E+03 -0.276697467429E+03 -0.276697385562E+03 -0.276697298019E+03
 -0.276697204434E+03 -0.276697104416E+03 -0.276696997546E+03 -0.276696883381E+03 -0.276696761444E+03
 -0.276696631229E+03 -0.276696492197E+03 -0.276696343771E+03 -0.276696185337E+03 -0.276696016239E+03
 -0.276695835779E+03 -0.276695643211E+03 -0.276695437742E+03 -0.276695218524E+03 -0.276694984654E+03
 -0.276694735169E+03 -0.276694469040E+03 -0.276694185175E+03 -0.276693882404E+03 -0.276693559483E+03
 -0.276693215085E+03 -0.276692847794E+03 -0.276692456102E+03 -0.276692038400E+03 -0.276691592973E+03
 -0.276691117992E+03 -0.276690611508E+03 -0.276690071443E+03 -0.276689495580E+03 -0.276688881557E+03
 -0.276688226856E+03 -0.276687528791E+03 -0.276686784500E+03 -0.276685990930E+03 -0.276685144827E+03
 -0.276684242724E+03 -0.276683280922E+03 -0.276682255477E+03 -0.276681162188E+03 -0.276679996573E+03
 -0.276678753855E+03 -0.276677428942E+03 -0.276676016403E+03 -0.276674510452E+03 -0.276672904917E+03
 -0.276671193220E+03 -0.276669368349E+03 -0.276667422827E+03 -0.276665348685E+03 -0.276663137425E+03
 -0.276660779990E+03 -0.276658266724E+03 -0.276655587333E+03 -0.276652730842E+03 -0.276649685554E+03
 -0.276646438997E+03 -0.276642977877E+03 -0.276639288021E+03 -0.276635354320E+03 -0.276631160668E+03
 -0.276626689898E+03 -0.276621923705E+03 -0.276616842580E+03 -0.276611425724E+03 -0.276605650966E+03
 -0.276599494672E+03 -0.276592931650E+03 -0.276585935043E+03 -0.276578476225E+03 -0.276570524681E+03
 -0.276562047883E+03 -0.276553011160E+03 -0.276543377553E+03 -0.276533107667E+03 -0.276522159513E+03
 -0.276510488332E+03 -0.276498046419E+03 -0.276484782925E+03 -0.276470643653E+03 -0.276455570838E+03
 -0.276439502913E+03 -0.276422374259E+03 -0.276404114942E+03 -0.276384650426E+03 -0.276363901277E+03
 -0.276341782840E+03 -0.276318204898E+03 -0.276293071308E+03 -0.276266279619E+03 -0.276237720653E+03
 -0.276207278075E+03 -0.276174827920E+03 -0.276140238102E+03 -0.276103367885E+03 -0.276064067320E+03
 -0.276022176652E+03 -0.275977525680E+03 -0.275929933084E+03 -0.275879205709E+03 -0.275825137798E+03
 -0.275767510183E+03 -0.275706089421E+03 -0.275640626879E+03 -0.275570857759E+03 -0.275496500062E+03
 -0.275417253493E+03 -0.275332798290E+03 -0.275242793987E+03 -0.275146878098E+03 -0.275044664720E+03
 -0.274935743050E+03 -0.274819675814E+03 -0.274695997597E+03 -0.274564213073E+03 -0.274423795125E+03
 -0.274274182858E+03 -0.274114779482E+03 -0.273944950074E+03 -0.273764019204E+03 -0.273571268412E+03
 -0.273365933544E+03 -0.273147201915E+03 -0.272914209307E+03 -0.272666036786E+03 -0.272401707320E+03
 -0.272120182198E+03 -0.271820357222E+03 -0.271501058675E+03 -0.271161039028E+03 -0.270798972388E+03
 -0.270413449663E+03 -0.270002973413E+03 -0.269565952391E+03 -0.269100695717E+03 -0.268605406702E+03
 -0.268078176260E+03 -0.267516975907E+03 -0.266919650314E+03 -0.266283909382E+03 -0.265607319826E+03
 -0.264887296239E+03 -0.264121091619E+03 -0.263305787345E+03 -0.262438282594E+03 -0.261515283217E+03
 -0.260533290061E+03 -0.259488586810E+03 -0.258377227368E+03 -0.257195022879E+03 -0.255937528498E+03
 -0.254600030067E+03 -0.253177530894E+03 -0.251664738915E+03 -0.250056054594E+03 -0.248345560017E+03
 -0.246527009814E+03 -0.244593824734E+03 -0.242539088990E+03 -0.240355552901E+03 -0.238035642906E+03
 -0.235571481783E+03 -0.232954922902E+03 -0.230177603654E+03 -0.227231024825E+03 -0.224106664601E+03
 -0.220796138055E+03 -0.217291415036E+03 -0.213585111038E+03 -0.209670866121E+03 -0.205543825481E+03
 -0.201201230802E+03 -0.196643123020E+03 -0.191873143848E+03 -0.186899404642E+03 -0.181735366651E+03
 -0.176400646298E+03 -0.170921624857E+03 -0.165331712982E+03 -0.159671122953E+03 -0.153986083699E+03
 -0.148327635908E+03 -0.142750381775E+03 -0.137311451118E+03 -0.132068903473E+03 -0.127077116148E+03
 -0.122377725799E+03 -0.118009398793E+03 -0.114322528439E+03 -0.111157291375E+03 -0.108505785484E+03
 -0.105079848375E+03 -0.101766325465E+03 -0.985584447487E+02 -0.954525102319E+02 -0.924450378582E+02
 -0.895327308606E+02 -0.867124502101E+02 -0.839811984966E+02 -0.813361027114E+02 -0.787744020398E+02
 -0.762934374050E+02 -0.738906446930E+02 -0.715635478215E+02 -0.693097536311E+02 -0.671269476382E+02
 -0.650128904161E+02 -0.629654144954E+02 -0.609824215393E+02 -0.590618799214E+02 -0.572018223627E+02
 -0.554003438394E+02 -0.536555993869E+02 -0.519658023685E+02 -0.503292223829E+02 -0.487441835890E+02
 -0.472090629242E+02 -0.457222884203E+02 -0.442823375820E+02 -0.428877358321E+02 -0.415370550059E+02
 -0.402289118851E+02
 pspotential valence only
 -0.175704292130E+03 -0.175704406799E+03 -0.175704517854E+03 -0.175704625409E+03 -0.175704729573E+03
 -0.175704830453E+03 -0.175704928152E+03 -0.175705022770E+03 -0.175705114405E+03 -0.175705203149E+03
 -0.175705289093E+03 -0.175705372325E+03 -0.175705452931E+03 -0.175705530992E+03 -0.175705606588E+03
 -0.175705679797E+03 -0.175705750693E+03 -0.175705819349E+03 -0.175705885835E+03 -0.175705950217E+03
 -0.175706012564E+03 -0.175706072937E+03 -0.175706131397E+03 -0.175706188006E+03 -0.175706242821E+03
 -0.175706295896E+03 -0.175706347286E+03 -0.175706397043E+03 -0.175706445218E+03 -0.175706491859E+03
 -0.175706537014E+03 -0.175706580729E+03 -0.175706623046E+03 -0.175706664010E+03 -0.175706703661E+03
 -0.175706742040E+03 -0.175706779184E+03 -0.175706815131E+03 -0.175706849917E+03 -0.175706883576E+03
 -0.175706916143E+03 -0.175706947648E+03 -0.175706978124E+03 -0.175707007599E+03 -0.175707036104E+03
 -0.175707063665E+03 -0.175707090310E+03 -0.175707116063E+03 -0.175707140951E+03 -0.175707164996E+03
 -0.175707188221E+03 -0.175707210647E+03 -0.175707232296E+03 -0.175707253187E+03 -0.175707273339E+03
 -0.175707292770E+03 -0.175707311497E+03 -0.175707329536E+03 -0.175707346902E+03 -0.175707363610E+03
 -0.175707379672E+03 -0.175707395102E+03 -0.175707409910E+03 -0.175707424108E+03 -0.175707437705E+03
 -0.175707450710E+03 -0.175707463131E+03 -0.175707474974E+03 -0.175707486246E+03 -0.175707496951E+03
 -0.175707507093E+03 -0.175707516675E+03 -0.175707525699E+03 -0.175707534165E+03 -0.175707542073E+03
 -0.175707549421E+03 -0.175707556206E+03 -0.175707562425E+03 -0.175707568071E+03 -0.175707573137E+03
 -0.175707577616E+03 -0.175707581498E+03 -0.175707584771E+03 -0.175707587422E+03 -0.175707589437E+03
 -0.175707590799E+03 -0.175707591490E+03 -0.175707591489E+03 -0.175707590773E+03 -0.175707589319E+03
 -0.175707587099E+03 -0.175707584084E+03 -0.175707580241E+03 -0.175707575535E+03 -0.175707569929E+03
 -0.175707563381E+03 -0.175707555848E+03 -0.175707547282E+03 -0.175707537631E+03 -0.175707526840E+03
 -0.175707514850E+03 -0.175707501595E+03 -0.175707487009E+03 -0.175707471017E+03 -0.175707453539E+03
 -0.175707434492E+03 -0.175707413785E+03 -0.175707391321E+03 -0.175707366995E+03 -0.175707340697E+03
 -0.175707312307E+03 -0.175707281699E+03 -0.175707248737E+03 -0.175707213275E+03 -0.175707175159E+03
 -0.175707134223E+03 -0.175707090290E+03 -0.175707043170E+03 -0.175706992664E+03 -0.175706938554E+03
 -0.175706880612E+03 -0.175706818591E+03 -0.175706752232E+03 -0.175706681253E+03 -0.175706605358E+03
 -0.175706524228E+03 -0.175706437524E+03 -0.175706344886E+03 -0.175706245926E+03 -0.175706140233E+03
 -0.175706027369E+03 -0.175705906866E+03 -0.175705778223E+03 -0.175705640910E+03 -0.175705494358E+03
 -0.175705337961E+03 -0.175705171074E+03 -0.175704993009E+03 -0.175704803032E+03 -0.175704600360E+03
 -0.175704384158E+03 -0.175704153537E+03 -0.175703907547E+03 -0.175703645178E+03 -0.175703365351E+03
 -0.175703066915E+03 -0.175702748645E+03 -0.175702409233E+03 -0.175702047287E+03 -0.175701661319E+03
 -0.175701249746E+03 -0.175700810880E+03 -0.175700342919E+03 -0.175699843945E+03 -0.175699311910E+03
 -0.175698744633E+03 -0.175698139788E+03 -0.175697494896E+03 -0.175696807313E+03 -0.175696074220E+03
 -0.175695292615E+03 -0.175694459293E+03 -0.175693570841E+03 -0.175692623619E+03 -0.175691613746E+03
 -0.175690537086E+03 -0.175689389229E+03 -0.175688165475E+03 -0.175686860812E+03 -0.175685469898E+03
 -0.175683987038E+03 -0.175682406163E+03 -0.175680720801E+03 -0.175678924054E+03 -0.175677008569E+03
 -0.175674966507E+03 -0.175672789514E+03 -0.175670468683E+03 -0.175667994521E+03 -0.175665356908E+03
 -0.175662545057E+03 -0.175659547472E+03 -0.175656351898E+03 -0.175652945272E+03 -0.175649313672E+03
 -0.175645442258E+03 -0.175641315215E+03 -0.175636915685E+03 -0.175632225702E+03 -0.175627226118E+03
 -0.175621896527E+03 -0.175616215179E+03 -0.175610158898E+03 -0.175603702983E+03 -0.175596821114E+03
 -0.175589485242E+03 -0.175581665477E+03 -0.175573329973E+03 -0.175564444793E+03 -0.175554973780E+03
 -0.175544878410E+03 -0.175534117639E+03 -0.175522647740E+03 -0.175510422129E+03 -0.175497391184E+03
 -0.175483502044E+03 -0.175468698406E+03 -0.175452920301E+03 -0.175436103860E+03 -0.175418181064E+03
 -0.175399079482E+03 -0.175378721988E+03 -0.175357026461E+03 -0.175333905475E+03 -0.175309265958E+03
 -0.175283008841E+03 -0.175255028678E+03 -0.175225213251E+03 -0.175193443146E+03 -0.175159591307E+03
 -0.175123522563E+03 -0.175085093130E+03 -0.175044150083E+03 -0.175000530798E+03 -0.174954062366E+03
 -0.174904560971E+03 -0.174851831234E+03 -0.174795665530E+03 -0.174735843259E+03 -0.174672130084E+03
 -0.174604277129E+03 -0.174532020142E+03 -0.174455078606E+03 -0.174373154818E+03 -0.174285932919E+03
 -0.174193077880E+03 -0.174094234447E+03 -0.173989026031E+03 -0.173877053559E+03 -0.173757894276E+03
 -0.173631100496E+03 -0.173496198309E+03 -0.173352686240E+03 -0.173200033858E+03 -0.173037680341E+03
 -0.172865032992E+03 -0.172681465719E+03 -0.172486317458E+03 -0.172278890567E+03 -0.172058449180E+03
 -0.171824217519E+03 -0.171575378184E+03 -0.171311070411E+03 -0.171030388313E+03 -0.170732379106E+03
 -0.170416041340E+03 -0.170080323125E+03 -0.169724120396E+03 -0.169346275209E+03 -0.168945574108E+03
 -0.168520746586E+03 -0.168070463672E+03 -0.167593336692E+03 -0.167087916261E+03 -0.166552691561E+03
 -0.165986089994E+03 -0.165386477292E+03 -0.164752158205E+03 -0.164081377881E+03 -0.163372324087E+03
 -0.162623130434E+03 -0.161831880783E+03 -0.160996615026E+03 -0.160115336470E+03 -0.159186021046E+03
 -0.158206628631E+03 -0.157175116783E+03 -0.156089457289E+03 -0.154947656003E+03 -0.153747776677E+03
 -0.152487969692E+03 -0.151166506996E+03 -0.149781825042E+03 -0.148332578090E+03 -0.146817704926E+03
 -0.145236512569E+03 -0.143588780785E+03 -0.141874890634E+03 -0.140095978377E+03 -0.138254112014E+03
 -0.136352480961E+03 -0.134395579258E+03 -0.132389349359E+03 -0.130341237663E+03 -0.128260095786E+03
 -0.126155845633E+03 -0.124038816014E+03 -0.121918665903E+03 -0.119802861553E+03 -0.117694818851E+03
 -0.115592091863E+03 -0.113485284390E+03 -0.111358274836E+03 -0.109189266406E+03 -0.106950376120E+03
 -0.104604257326E+03 -0.102120632085E+03 -0.997980815626E+02 -0.974485069200E+02 -0.950638914786E+02
 -0.927022025691E+02 -0.903633911598E+02 -0.880495106479E+02 -0.857647298600E+02 -0.835125081287E+02
 -0.812955936808E+02 -0.791160386298E+02 -0.769752285833E+02 -0.748739432895E+02 -0.728124468580E+02
 -0.707906159707E+02 -0.688080850467E+02 -0.668644144577E+02 -0.649592435813E+02 -0.630924215756E+02
 -0.612640972033E+02 -0.594747598006E+02 -0.577252296279E+02 -0.560166012880E+02 -0.543501476133E+02
 -0.527271939621E+02 -0.511489751127E+02 -0.496164893813E+02 -0.481303667719E+02 -0.466907685486E+02
 -0.452973330032E+02 -0.439491757189E+02 -0.426449433146E+02 -0.413829100845E+02 -0.401611000932E+02
 -0.389774150688E+02
 core charge-density (pseudized)
  0.285752117425E-07  0.304638160116E-07  0.324772426645E-07  0.346237415116E-07  0.369121076128E-07
  0.393517173149E-07  0.419525666697E-07  0.447253123920E-07  0.476813155243E-07  0.508326879878E-07
  0.541923422091E-07  0.577740440283E-07  0.615924691025E-07  0.656632630382E-07  0.700031054973E-07
  0.746297785404E-07  0.795622394867E-07  0.848206985902E-07  0.904267018484E-07  0.964032192854E-07
  0.102774739069E-06  0.109567367847E-06  0.116808937720E-06  0.124529120277E-06  0.132759548172E-06
  0.141533944737E-06  0.150888262160E-06  0.160860828794E-06  0.171492506202E-06  0.182826856586E-06
  0.194910321277E-06  0.207792411023E-06  0.221525908855E-06  0.236167086357E-06  0.251775934236E-06
  0.268416408128E-06  0.286156690643E-06  0.305069470744E-06  0.325232241575E-06  0.346727617985E-06
  0.369643675030E-06  0.394074308853E-06  0.420119621412E-06  0.447886330635E-06  0.477488207686E-06
  0.509046543128E-06  0.542690643898E-06  0.578558363125E-06  0.616796664969E-06  0.657562226787E-06
  0.701022081100E-06  0.747354299989E-06  0.796748724720E-06  0.849407743599E-06  0.905547121229E-06
  0.965396882578E-06  0.102920225548E-05  0.109722467541E-05  0.116974285670E-05  0.124705393452E-05
  0.132947468235E-05  0.141734280991E-05  0.151101834688E-05  0.161088511808E-05  0.171735231611E-05
  0.183085617796E-05  0.195186177245E-05  0.208086490573E-05  0.221839415280E-05  0.236501302322E-05
  0.252132227004E-05  0.268796235122E-05  0.286561605383E-05  0.305501129163E-05  0.325692408755E-05
  0.347218175327E-05  0.370166627900E-05  0.394631794720E-05  0.420713918517E-05  0.448519867233E-05
  0.478163571879E-05  0.509766493345E-05  0.543458120053E-05  0.579376498496E-05  0.617668798852E-05
  0.658491917966E-05  0.702013122188E-05  0.748410732692E-05  0.797874856088E-05  0.850608163318E-05
  0.906826720027E-05  0.966760871805E-05  0.103065618794E-04  0.109877446753E-04  0.117139481209E-04
  0.124881476904E-04  0.133135155076E-04  0.141934333422E-04  0.151315064643E-04  0.161315784156E-04
  0.171977467553E-04  0.183343798476E-04  0.195461347584E-04  0.208379763337E-04  0.222151975398E-04
  0.236834411467E-04  0.252487228451E-04  0.269174558896E-04  0.286964773718E-04  0.305930762280E-04
  0.326150230978E-04  0.347706021562E-04  0.370686450476E-04  0.395185670627E-04  0.421304057048E-04
  0.449148618047E-04  0.478833433511E-04  0.510480122165E-04  0.544218339701E-04  0.580186309808E-04
  0.618531390282E-04  0.659410676522E-04  0.702991644894E-04  0.749452838577E-04  0.798984598713E-04
  0.851789843834E-04  0.908084900763E-04  0.968100390380E-04  0.103208217187E-03  0.110029234931E-03
  0.117301034474E-03  0.125053404202E-03  0.133318100620E-03  0.142128978346E-03  0.151522128670E-03
  0.161536027267E-03  0.172211691655E-03  0.183592849036E-03  0.195726115218E-03  0.208661185331E-03
  0.222451037127E-03  0.237152147682E-03  0.252824724388E-03  0.269532951175E-03  0.287345250955E-03
  0.306334565369E-03  0.326578652958E-03  0.348160406984E-03  0.371168194173E-03  0.395696215770E-03
  0.421844892353E-03  0.449721273981E-03  0.479439477317E-03  0.511121151506E-03  0.544895974679E-03
  0.580902183097E-03  0.619287135054E-03  0.660207911817E-03  0.703831958021E-03  0.750337764076E-03
  0.799915593345E-03  0.852768256971E-03  0.909111939493E-03  0.969177078501E-03  0.103320930187E-02
  0.110147042627E-02  0.117423952094E-02  0.125181404093E-02  0.133451103425E-02  0.142266842775E-02
  0.151664639673E-02  0.161682882365E-02  0.172362485171E-02  0.183747053919E-02  0.195883062116E-02
  0.208820038522E-02  0.222610766859E-02  0.237311498410E-02  0.252982178332E-02  0.269686686531E-02
  0.287493094012E-02  0.306473935670E-02  0.326706500536E-02  0.348273140551E-02  0.371261599008E-02
  0.395765359869E-02  0.421884019196E-02  0.449723680064E-02  0.479397372326E-02  0.511025498733E-02
  0.544736308941E-02  0.580666403036E-02  0.618961266297E-02  0.659775836962E-02  0.703275108874E-02
  0.749634770954E-02  0.799041885524E-02  0.851695607581E-02  0.907807947222E-02  0.967604577444E-02
  0.103132568968E-01  0.109922689945E-01  0.117158020451E-01  0.124867499810E-01  0.133081913974E-01
  0.141834008603E-01  0.151158608424E-01  0.161092743086E-01  0.171675779788E-01  0.182949562896E-01
  0.194958560789E-01  0.207750020131E-01  0.221374127769E-01  0.235884180400E-01  0.251336762155E-01
  0.267791930159E-01  0.285313408112E-01  0.303968787850E-01  0.323829738784E-01  0.344972225017E-01
  0.367476729824E-01  0.391428487092E-01  0.416917719112E-01  0.444039880012E-01  0.472895903866E-01
  0.503592456323E-01  0.536242188320E-01  0.570963990146E-01  0.607883243781E-01  0.647132071028E-01
  0.688849574516E-01  0.733182068138E-01  0.780283292891E-01  0.830314613454E-01  0.883445190059E-01
  0.939852119421E-01  0.999720537500E-01  0.106324367587E+00  0.113062286222E+00  0.120206745436E+00
  0.127779469540E+00  0.135802947645E+00  0.144300399122E+00  0.153295726506E+00  0.162813453888E+00
  0.172878648600E+00  0.183516823764E+00  0.194753819008E+00  0.206615656356E+00  0.219128368029E+00
  0.232317792567E+00  0.246209335364E+00  0.260827689414E+00  0.276196511711E+00  0.292338050488E+00
  0.309272718182E+00  0.327018604790E+00  0.345590926116E+00  0.365001401319E+00  0.385257554227E+00
  0.406361933042E+00  0.428311243483E+00  0.451095391000E+00  0.474696428691E+00  0.499087408806E+00
  0.524231137565E+00  0.550078835305E+00  0.576568706989E+00  0.603624431856E+00  0.631153585675E+00
  0.659046014743E+00  0.687172187648E+00  0.715381558991E+00  0.743500988859E+00  0.771333272983E+00
  0.798655851269E+00  0.825219776708E+00  0.850749042566E+00  0.874940382947E+00  0.897463679968E+00
  0.917963129323E+00  0.936059334054E+00  0.951352512694E+00  0.963427020910E+00  0.971857393236E+00
  0.976216110563E+00  0.976083286294E+00  0.971058435117E+00  0.960774438096E+00  0.944913740239E+00
  0.923226705148E+00  0.895551898674E+00  0.861837872285E+00  0.822165760435E+00  0.776771689375E+00
  0.726067615308E+00  0.670658770096E+00  0.611355402867E+00  0.549175986027E+00  0.485338539112E+00
  0.421236266492E+00  0.358393381511E+00  0.298396903734E+00  0.242800502024E+00  0.192997280423E+00
  0.150059961384E+00  0.114549426091E+00  0.862965432756E-01  0.643178444881E-01  0.474190929544E-01
  0.345732753675E-01  0.249211218797E-01  0.177542036762E-01  0.124968562442E-01  0.868797614823E-02
  0.596348585437E-02  0.404002844711E-02  0.270025037406E-02  0.177986003358E-02  0.115651432587E-02
  0.740483017382E-03  0.466968992639E-03  0.289917132850E-03  0.177121097485E-03  0.106430950608E-03
  0.628708930046E-04  0.364913038868E-04  0.207994311421E-04  0.116356164949E-04  0.638476897443E-05
  0.343438183083E-05  0.180974200925E-05  0.933584744014E-06  0.471141573797E-06  0.232428323028E-06
  0.112004185388E-06  0.526797476677E-07  0.241637147266E-07  0.108001785198E-07  0.469972812385E-08
  0.198933231171E-08
 pseudo wavefunction
  0.162798839581E-11  0.179202298181E-11  0.197258553900E-11  0.217134141025E-11  0.239012373682E-11
  0.263095036557E-11  0.289604245971E-11  0.318784498476E-11  0.350904925867E-11  0.386261777407E-11
  0.425181152155E-11  0.468022006603E-11  0.515179465365E-11  0.567088465437E-11  0.624227767656E-11
  0.687124372352E-11  0.756358379912E-11  0.832568341087E-11  0.916457146405E-11  0.100879850898E-10
  0.111044410051E-10  0.122233140637E-10  0.134549237203E-10  0.148106292084E-10  0.163029343070E-10
  0.179456026640E-10  0.197537847394E-10  0.217441575392E-10  0.239350784288E-10  0.263467544441E-10
  0.290014286629E-10  0.319235853541E-10  0.351401757984E-10  0.386808668615E-10  0.425783146145E-10
  0.468684655227E-10  0.515908879829E-10  0.567891372654E-10  0.625111572277E-10  0.688097225043E-10
  0.757429252506E-10  0.833747109316E-10  0.917754680953E-10  0.101022677571E-09  0.111201627082E-09
  0.122406197858E-09  0.134739730510E-09  0.148315978146E-09  0.163260155528E-09  0.179710093932E-09
  0.197817512375E-09  0.217749416934E-09  0.239689641048E-09  0.263840541032E-09  0.290424862416E-09
  0.319687794346E-09  0.351899230976E-09  0.387356260719E-09  0.426385906307E-09  0.469348140948E-09
  0.516639208372E-09  0.568695277413E-09  0.625996464813E-09  0.689071263367E-09  0.758501416236E-09
  0.834927282390E-09  0.919053742670E-09  0.101165670093E-08  0.111359024024E-08  0.122579450010E-08
  0.134930434742E-08  0.148525892108E-08  0.163491213828E-08  0.179964425943E-08  0.198097461833E-08
  0.218057563500E-08  0.240028824043E-08  0.264213885553E-08  0.290835808076E-08  0.320140126903E-08
  0.352397117133E-08  0.387904286421E-08  0.426989118885E-08  0.470012095482E-08  0.517370018714E-08
  0.569499672321E-08  0.626881849716E-08  0.690045788317E-08  0.759574050665E-08  0.836107897361E-08
  0.920353201354E-08  0.101308695814E-07  0.111516445191E-07  0.122752714372E-07  0.135121135449E-07
  0.148735782280E-07  0.163722222578E-07  0.180218675996E-07  0.198377288901E-07  0.218365537588E-07
  0.240367772874E-07  0.264586920320E-07  0.291246351755E-07  0.320591945371E-07  0.352894353373E-07
  0.388451498115E-07  0.427591319718E-07  0.470674800534E-07  0.518099294321E-07  0.570302190850E-07
  0.627764949723E-07  0.691017540614E-07  0.760643330855E-07  0.837284465471E-07  0.921647789229E-07
  0.101451136536E-06  0.111673165100E-06  0.122925139559E-06  0.135310833497E-06  0.148944476143E-06
  0.163951805785E-06  0.180471229314E-06  0.198655098585E-06  0.218671115364E-06  0.240703877806E-06
  0.264956582736E-06  0.291652899412E-06  0.321039032051E-06  0.353385990124E-06  0.388992087358E-06
  0.428185692469E-06  0.471328256984E-06  0.518817648059E-06  0.571091817010E-06  0.628632837362E-06
  0.691971349636E-06  0.761691453820E-06  0.838436094617E-06  0.922912989084E-06  0.101590115127E-05
  0.111825807396E-05  0.123092763372E-05  0.135494879195E-05  0.149146517226E-05  0.164173560217E-05
  0.180714571635E-05  0.198922072824E-05  0.218963948748E-05  0.241024995274E-05  0.265308622228E-05
  0.292038727892E-05  0.321461762206E-05  0.353848997636E-05  0.389499028619E-05  0.428740522553E-05
  0.471935247648E-05  0.519481405454E-05  0.571817298716E-05  0.629425368251E-05  0.692836635937E-05
  0.762635594630E-05  0.839465589894E-05  0.924034742973E-05  0.101712246933E-04  0.111958665257E-04
  0.123237153956E-04  0.135651642905E-04  0.149316523347E-04  0.164357700152E-04  0.180913749780E-04
  0.199137194546E-04  0.219195904850E-04  0.241274642179E-04  0.265576756983E-04  0.292326056928E-04
  0.321768862556E-04  0.354176269122E-04  0.389846635177E-04  0.429108320579E-04  0.472322698817E-04
  0.519887471015E-04  0.572240311711E-04  0.629862879445E-04  0.693285228496E-04  0.763090661665E-04
  0.839921067944E-04  0.924482793219E-04  0.101755309689E-03  0.111998725249E-03  0.123272635599E-03
  0.135680591186E-03  0.149336527360E-03  0.164365802303E-03  0.180906338079E-03  0.199109874939E-03
  0.219143349995E-03  0.241190412462E-03  0.265453088791E-03  0.292153612350E-03  0.321536433654E-03
  0.353870428683E-03  0.389451324477E-03  0.428604363005E-03  0.471687226252E-03  0.519093247603E-03
  0.571254936929E-03  0.628647849270E-03  0.691794829751E-03  0.761270670298E-03  0.837707216920E-03
  0.921798969734E-03  0.101430922165E-02  0.111607678560E-02  0.122802336442E-02  0.135116162217E-02
  0.148660402056E-02  0.163557248916E-02  0.179940900401E-02  0.197958715461E-02  0.217772478591E-02
  0.239559780807E-02  0.263515527362E-02  0.289853582874E-02  0.318808565240E-02  0.350637800466E-02
  0.385623451255E-02  0.424074832967E-02  0.466330931245E-02  0.512763136306E-02  0.563778209532E-02
  0.619821498522E-02  0.681380417227E-02  0.748988208078E-02  0.823228003128E-02  0.904737201090E-02
  0.994212176707E-02  0.109241333809E-01  0.120017054641E-01  0.131838891033E-01  0.144805496539E-01
  0.159024324473E-01  0.174612324369E-01  0.191696677497E-01  0.210415570448E-01  0.230919004936E-01
  0.253369640938E-01  0.277943669040E-01  0.304831706366E-01  0.334239708648E-01  0.366389888895E-01
  0.401521630598E-01  0.439892380494E-01  0.481778502485E-01  0.527476070378E-01  0.577301572584E-01
  0.631592496724E-01  0.690707756222E-01  0.755027914350E-01  0.824955153784E-01  0.900912931523E-01
  0.983345250029E-01  0.107271546566E+00  0.116950454499E+00  0.127420866862E+00  0.138733607049E+00
  0.150940298960E+00  0.164092859929E+00  0.178242876947E+00  0.193440850812E+00  0.209735292210E+00
  0.227171653469E+00  0.245791079973E+00  0.265628966101E+00  0.286713302378E+00  0.309062803416E+00
  0.332684810568E+00  0.357572969239E+00  0.383704688925E+00  0.411038404639E+00  0.439510671765E+00
  0.469033142990E+00  0.499489496089E+00  0.530732405196E+00  0.562580675822E+00  0.594816695134E+00
  0.627184383251E+00  0.659387867562E+00  0.691091138555E+00  0.721918979879E+00  0.751459493694E+00
  0.779268560067E+00  0.804876569921E+00  0.827797747222E+00  0.847542318302E+00  0.863631683980E+00
  0.875616591860E+00  0.883098080461E+00  0.885750663487E+00  0.883346834965E+00  0.875781504005E+00
  0.863094421513E+00  0.845488065593E+00  0.823337853417E+00  0.797191017686E+00  0.767750130444E+00
  0.735837217184E+00  0.702334857290E+00  0.668101820330E+00  0.633862861480E+00  0.600074833341E+00
  0.566857617539E+00  0.534284712781E+00  0.502449882855E+00  0.471436439094E+00  0.441317830991E+00
  0.412158178868E+00  0.384012727155E+00  0.356928213031E+00  0.330943145297E+00  0.306088025098E+00
  0.282385425258E+00  0.259850221976E+00  0.238489671513E+00  0.218303633666E+00  0.199284871444E+00
  0.181419466717E+00  0.164687358226E+00  0.149062991729E+00  0.134516057298E+00  0.121012277949E+00
  0.108514207776E+00  0.969819970967E-01  0.863740864188E-01  0.766477998756E-01  0.677598210826E-01
  0.596665486450E-01  0.523243426668E-01  0.456896852367E-01  0.397192849750E-01  0.343701572375E-01
  0.295997077555E-01
 ae wavefunction
  0.433256255216E-07  0.471968187458E-07  0.513946550637E-07  0.559482760990E-07  0.608893090838E-07
  0.662520892244E-07  0.720739013092E-07  0.783952422832E-07  0.852601066740E-07  0.927162969273E-07
  0.100815760884E-06  0.109614958841E-06  0.119175262837E-06  0.129563391064E-06  0.140851880549E-06
  0.153119601525E-06  0.166452317240E-06  0.180943293270E-06  0.196693960780E-06  0.213814638554E-06
  0.232425319089E-06  0.252656524484E-06  0.274650238401E-06  0.298560920920E-06  0.324556613754E-06
  0.352820143932E-06  0.383550434816E-06  0.416963934121E-06  0.453296169451E-06  0.492803442880E-06
  0.535764677073E-06  0.582483426638E-06  0.633290069641E-06  0.688544195511E-06  0.748637207110E-06
  0.813995156322E-06  0.885081834293E-06  0.962402139328E-06  0.104650574764E-05  0.113799111432E-05
  0.123750983452E-05  0.134577139740E-05  0.146354836860E-05  0.159168203998E-05  0.173108858908E-05
  0.188276579461E-05  0.204780035838E-05  0.222737588876E-05  0.242278160586E-05  0.263542183380E-05
  0.286682635178E-05  0.311866168177E-05  0.339274339814E-05  0.369104955188E-05  0.401573531070E-05
  0.436914892559E-05  0.475384914397E-05  0.517262420113E-05  0.562851253281E-05  0.612482536532E-05
  0.666517135325E-05  0.725348345036E-05  0.789404821592E-05  0.859153777678E-05  0.935104468544E-05
  0.101781199356E-04  0.110788144203E-04  0.120597241432E-04  0.131280395205E-04  0.142915991419E-04
  0.155589483918E-04  0.169394033648E-04  0.184431205526E-04  0.200811728154E-04  0.218656322019E-04
  0.238096602253E-04  0.259276062612E-04  0.282351147857E-04  0.307492422394E-04  0.334885843645E-04
  0.364734149411E-04  0.397258369235E-04  0.432699470624E-04  0.471320151937E-04  0.513406794712E-04
  0.559271589265E-04  0.609254848584E-04  0.663727526732E-04  0.723093959346E-04  0.787794845216E-04
  0.858310489512E-04  0.935164330816E-04  0.101892677595E-03  0.111021936844E-03  0.120971931848E-03
  0.131816442447E-03  0.143635841848E-03  0.156517677038E-03  0.170557298817E-03  0.185858545456E-03
  0.202534484320E-03  0.220708216047E-03  0.240513746268E-03  0.262096930161E-03  0.285616495495E-03
  0.311245150234E-03  0.339170781136E-03  0.369597750213E-03  0.402748296369E-03  0.438864049947E-03
  0.478207668411E-03  0.521064601841E-03  0.567744997417E-03  0.618585752562E-03  0.673952726880E-03
  0.734243123565E-03  0.799888051397E-03  0.871355278943E-03  0.949152193030E-03  0.103382897398E-02
  0.112598200048E-02  0.122625749733E-02  0.133535543955E-02  0.145403372657E-02  0.158311264023E-02
  0.172347960065E-02  0.187609423329E-02  0.204199376090E-02  0.222229873321E-02  0.241821910647E-02
  0.263106068434E-02  0.286223193016E-02  0.311325115916E-02  0.338575411743E-02  0.368150195188E-02
  0.400238957300E-02  0.435045440868E-02  0.472788554357E-02  0.513703323410E-02  0.558041878378E-02
  0.606074475762E-02  0.658090550764E-02  0.714399797335E-02  0.775333271276E-02  0.841244510879E-02
  0.912510668562E-02  0.989533645638E-02  0.107274122102E-01  0.116258816312E-01  0.125955731254E-01
  0.136416062128E-01  0.147694013231E-01  0.159846888096E-01  0.172935169751E-01  0.187022588772E-01
  0.202176176527E-01  0.218466300721E-01  0.235966680042E-01  0.254754374361E-01  0.274909746544E-01
  0.296516391548E-01  0.319661028028E-01  0.344433347184E-01  0.370925813170E-01  0.399233408911E-01
  0.429453320841E-01  0.461684555879E-01  0.496027483806E-01  0.532583298268E-01  0.571453389710E-01
  0.612738623617E-01  0.656538517555E-01  0.702950310498E-01  0.752067918038E-01  0.803980767142E-01
  0.858772504366E-01  0.916519571796E-01  0.977289645545E-01  0.104113993254E+00  0.110811532246E+00
  0.117824639326E+00  0.125154727058E+00  0.132801334362E+00  0.140761884267E+00  0.149031428628E+00
  0.157602380971E+00  0.166464238988E+00  0.175603298602E+00  0.185002362026E+00  0.194640442662E+00
  0.204492470272E+00  0.214529000352E+00  0.224715932243E+00  0.235014241068E+00  0.245379729175E+00
  0.255762803339E+00  0.266108284500E+00  0.276355257332E+00  0.286436967326E+00  0.296280773372E+00
  0.305808163937E+00  0.314934844708E+00  0.323570905135E+00  0.331621070469E+00  0.338985045136E+00
  0.345557952838E+00  0.351230879427E+00  0.355891526503E+00  0.359424986614E+00  0.361714653694E+00
  0.362643283267E+00  0.362094214031E+00  0.359952754313E+00  0.356107724269E+00  0.350453133297E+00
  0.342889967542E+00  0.333328065834E+00  0.321688066439E+00  0.307903406558E+00  0.291922351573E+00
  0.273710025719E+00  0.253250412095E+00  0.230548287756E+00  0.205631057547E+00  0.178550447797E+00
  0.149384017898E+00  0.118236444758E+00  0.852405327777E-01  0.505579008367E-01  0.143792984148E-01
 -0.230754944883E-01 -0.615582242912E-01 -0.100793211746E+00 -0.140478916284E+00 -0.180290029753E+00
 -0.219880091650E+00 -0.258884582537E+00 -0.296924402393E+00 -0.333609597168E+00 -0.368543209944E+00
 -0.401325260703E+00 -0.431557098867E+00 -0.458846540653E+00 -0.482813941152E+00 -0.503098693108E+00
 -0.519365359055E+00 -0.531309075960E+00 -0.538660343534E+00 -0.541189373790E+00 -0.538710017423E+00
 -0.531083148870E+00 -0.518219354186E+00 -0.500080811280E+00 -0.476682327305E+00 -0.448091559050E+00
 -0.414428473986E+00 -0.375864118293E+00 -0.332618754454E+00 -0.284959422709E+00 -0.233196972038E+00
 -0.177682599613E+00 -0.118803934499E+00 -0.569807025838E-01  0.733998457354E-02  0.736886649725E-01
  0.141578821795E+00  0.210512362028E+00  0.279985182264E+00  0.349492701512E+00  0.418535209743E+00
  0.486622865595E+00  0.553280207763E+00  0.618050158322E+00  0.680497669001E+00  0.740213295595E+00
  0.796816949987E+00  0.849961877085E+00  0.899338635791E+00  0.944678733943E+00  0.985757601318E+00
  0.102239671315E+01  0.105446479231E+01  0.108187809112E+01  0.110459978260E+01  0.112263851530E+01
  0.113604620388E+01  0.114491515171E+01  0.114937461638E+01  0.114958694238E+01  0.114574339104E+01
  0.113805978276E+01  0.112677207841E+01  0.111213199734E+01  0.109440275875E+01  0.107385503907E+01
  0.105076319203E+01  0.102540179356E+01  0.998042540945E+00  0.968951537275E+00  0.938386969297E+00
  0.906597183299E+00  0.873819150006E+00  0.840277303185E+00  0.806182724264E+00  0.771732645737E+00
  0.737110233523E+00  0.702484611006E+00  0.668011081909E+00  0.633831512919E+00  0.600074833341E+00
  0.566857617539E+00  0.534284712781E+00  0.502449882855E+00  0.471436439094E+00  0.441317830991E+00
  0.412158178868E+00  0.384012727155E+00  0.356928213031E+00  0.330943145297E+00  0.306088025098E+00
  0.282385425258E+00  0.259850221976E+00  0.238489671513E+00  0.218303633666E+00  0.199284871444E+00
  0.181419466717E+00  0.164687358226E+00  0.149062991729E+00  0.134516057298E+00  0.121012277949E+00
  0.108514207776E+00  0.969819970967E-01  0.863740864188E-01  0.766477998756E-01  0.677598210826E-01
  0.596665486450E-01  0.523243426668E-01  0.456896852367E-01  0.397192849750E-01  0.343701572375E-01
  0.295997077555E-01
 pseudo wavefunction
  0.156492194664E-11  0.172260201632E-11  0.189616978207E-11  0.208722607326E-11  0.229753301731E-11
  0.252903029194E-11  0.278385301499E-11  0.306435143676E-11  0.337311261655E-11  0.371298428334E-11
  0.408710110060E-11  0.449891357754E-11  0.495221989344E-11  0.545120092853E-11  0.600045882461E-11
  0.660505943096E-11  0.727057902705E-11  0.800315575301E-11  0.880954622218E-11  0.969718783790E-11
  0.106742673892E-10  0.117497965584E-10  0.129336950361E-10  0.142368820119E-10  0.156713768824E-10
  0.172504101072E-10  0.189885452345E-10  0.209018132220E-10  0.230078602912E-10  0.253261106802E-10
  0.278779457948E-10  0.306869014111E-10  0.337788847474E-10  0.371824134085E-10  0.409288784060E-10
  0.450528336796E-10  0.495923147910E-10  0.545891897285E-10  0.600895450586E-10  0.661441109859E-10
  0.728087292416E-10  0.801448681154E-10  0.882201893826E-10  0.971091723532E-10  0.106893800800E-09
  0.117664319100E-09  0.129520064568E-09  0.142570383644E-09  0.156935640413E-09  0.172748326724E-09
  0.190154284173E-09  0.209314049210E-09  0.230404333778E-09  0.253619655140E-09  0.279174129919E-09
  0.307303448914E-09  0.338267050890E-09  0.372350515395E-09  0.409868196680E-09  0.451166123006E-09
  0.496625188078E-09  0.546664664057E-09  0.601746068519E-09  0.662377421066E-09  0.729117928807E-09
  0.802583143957E-09  0.883450641102E-09  0.972466266498E-09  0.107045101704E-08  0.117830861235E-08
  0.129703382982E-08  0.142772167945E-08  0.157157750321E-08  0.172992809188E-08  0.190423392211E-08
  0.209610262641E-08  0.230730382037E-08  0.253978542383E-08  0.279569162659E-08  0.307738266423E-08
  0.338745658658E-08  0.372877321950E-08  0.410448054099E-08  0.451804371495E-08  0.497327705026E-08
  0.547437918003E-08  0.602597178538E-08  0.663314222098E-08  0.730149043541E-08  0.803718061908E-08
  0.884699805605E-08  0.973841170412E-08  0.107196430802E-07  0.117997420865E-07  0.129886704765E-07
  0.142973937310E-07  0.157379821906E-07  0.173237223791E-07  0.190692395418E-07  0.209906325317E-07
  0.231056222853E-07  0.254337152586E-07  0.279963833298E-07  0.308172618285E-07  0.339223675163E-07
  0.373403385314E-07  0.411026985067E-07  0.452441473005E-07  0.498028810179E-07  0.548209442760E-07
  0.603446179602E-07  0.664248460485E-07  0.731177054375E-07  0.804849231056E-07  0.885944453792E-07
  0.975210645530E-07  0.107347108642E-06  0.118163200624E-06  0.130069094177E-06  0.143174593608E-06
  0.157600566474E-06  0.173480058204E-06  0.190959519026E-06  0.210200154491E-06  0.231379412062E-06
  0.254692617450E-06  0.280354775810E-06  0.308602554377E-06  0.339696464838E-06  0.373923265538E-06
  0.411598605679E-06  0.453069935882E-06  0.498719711922E-06  0.548968921189E-06  0.604280964353E-06
  0.665165928016E-06  0.732185287725E-06  0.805957084671E-06  0.887161623790E-06  0.976547745743E-06
  0.107493973058E-05  0.118324489667E-05  0.130246196490E-05  0.143369026517E-05  0.157813986999E-05
  0.173714274851E-05  0.191216504363E-05  0.210482058533E-05  0.231688576445E-05  0.255031590407E-05
  0.280726327891E-05  0.309009694880E-05  0.340142458847E-05  0.374411651472E-05  0.412133213180E-05
  0.453654903822E-05  0.499359506272E-05  0.549668352371E-05  0.605045203640E-05  0.666000522405E-05
  0.733096172585E-05  0.806950593290E-05  0.888244492752E-05  0.977727114826E-05  0.107622313558E-04
  0.118464025320E-04  0.130397754085E-04  0.143533463893E-04  0.157992187113E-04  0.173907137672E-04
  0.191424936106E-04  0.210706957639E-04  0.231930815620E-04  0.255291993861E-04  0.281005642792E-04
  0.309308555824E-04  0.340461343943E-04  0.374750828344E-04  0.412492672908E-04  0.454034280448E-04
  0.499757979072E-04  0.550084527577E-04  0.605476971682E-04  0.666444886042E-04  0.733549040420E-04
  0.807406532207E-04  0.888696431608E-04  0.978165990378E-04  0.107663746998E-03  0.118501565051E-03
  0.130429608772E-03  0.143557419212E-03  0.158005521108E-03  0.173906520319E-03  0.191406310221E-03
  0.210665397779E-03  0.231860361022E-03  0.255185450784E-03  0.280854350790E-03  0.309102111535E-03
  0.340187274829E-03  0.374394207520E-03  0.412035664607E-03  0.453455603884E-03  0.499032276287E-03
  0.549181618357E-03  0.604360975685E-03  0.665073188803E-03  0.731871075857E-03  0.805362349483E-03
  0.886215008629E-03  0.975163249660E-03  0.107301394495E-02  0.118065374134E-02  0.129905683523E-02
  0.142929348593E-02  0.157253933389E-02  0.173008559593E-02  0.190335021507E-02  0.209389004910E-02
  0.230341418775E-02  0.253379849552E-02  0.278710148375E-02  0.306558162287E-02  0.337171621301E-02
  0.370822193838E-02  0.407807723850E-02  0.448454663647E-02  0.493120717133E-02  0.542197708855E-02
  0.596114694803E-02  0.655341331438E-02  0.720391519743E-02  0.791827341338E-02  0.870263303613E-02
  0.956370910589E-02  0.105088357552E-01  0.115460189026E-01  0.126839926468E-01  0.139322794741E-01
  0.153012543606E-01  0.168022128118E-01  0.184474428344E-01  0.202503007701E-01  0.222252908471E-01
  0.243881482071E-01  0.267559250534E-01  0.293470794233E-01  0.321815659267E-01  0.352809275905E-01
  0.386683877193E-01  0.423689404087E-01  0.464094380278E-01  0.508186736221E-01  0.556274557588E-01
  0.608686728539E-01  0.665773434662E-01  0.727906484182E-01  0.795479399064E-01  0.868907219849E-01
  0.948625959505E-01  0.103509163228E+00  0.112877877354E+00  0.123017835584E+00  0.133979499581E+00
  0.145814333483E+00  0.158574346580E+00  0.172311526810E+00  0.187077150374E+00  0.202920952115E+00
  0.219890140968E+00  0.238028244882E+00  0.257373770377E+00  0.277958663425E+00  0.299806560972E+00
  0.322930826301E+00  0.347332367007E+00  0.372997241833E+00  0.399894072473E+00  0.427971288996E+00
  0.457154253177E+00  0.487342323130E+00  0.518405945357E+00  0.550183886919E+00  0.582480750669E+00
  0.615064949967E+00  0.647667355170E+00  0.679980860876E+00  0.711661158157E+00  0.742329026572E+00
  0.771574482062E+00  0.798963123060E+00  0.824045000888E+00  0.846366292593E+00  0.865483964394E+00
  0.880983469894E+00  0.892499317044E+00  0.899738049817E+00  0.902502815697E+00  0.900718224411E+00
  0.894453651817E+00  0.883942523850E+00  0.869594466118E+00  0.851996588054E+00  0.831899680772E+00
  0.810184876584E+00  0.787806516954E+00  0.765707812967E+00  0.744707592332E+00  0.725359245488E+00
  0.707877851055E+00  0.692477076968E+00  0.679421969739E+00  0.668993887899E+00  0.661495819184E+00
  0.000000000000E+00  0.000000000000E+00  0.000000000000E+00  0.000000000000E+00  0.000000000000E+00
  0.000000000000E+00  0.000000000000E+00  0.000000000000E+00  0.000000000000E+00  0.000000000000E+00
  0.000000000000E+00  0.000000000000E+00  0.000000000000E+00  0.000000000000E+00  0.000000000000E+00
  0.000000000000E+00  0.000000000000E+00  0.000000000000E+00  0.000000000000E+00  0.000000000000E+00
  0.000000000000E+00  0.000000000000E+00  0.000000000000E+00  0.000000000000E+00  0.000000000000E+00
  0.000000000000E+00
 ae wavefunction
  0.418601675436E-07  0.456004202791E-07  0.496562676368E-07  0.540558655448E-07  0.588297714650E-07
  0.640111592386E-07  0.696360525211E-07  0.757435784755E-07  0.823762435442E-07  0.895802332873E-07
  0.974057384456E-07  0.105907309583E-06  0.115144242872E-06  0.125180999806E-06  0.136087663897E-06
  0.147940437643E-06  0.160822183409E-06  0.174823012127E-06  0.190040924119E-06  0.206582506712E-06
  0.224563693734E-06  0.244110592465E-06  0.265360384063E-06  0.288462304099E-06  0.313578710386E-06
  0.340886245953E-06  0.370577105710E-06  0.402860416172E-06  0.437963738381E-06  0.476134705159E-06
  0.517642804800E-06  0.562781324378E-06  0.611869467140E-06  0.665254659638E-06  0.723315065793E-06
  0.786462326564E-06  0.855144545668E-06  0.929849543558E-06  0.101110840401E-05  0.109949933977E-05
  0.119565190620E-05  0.130025159447E-05  0.141404483869E-05  0.153784447457E-05  0.167253569056E-05
  0.181908251615E-05  0.197853489618E-05  0.215203640424E-05  0.234083265342E-05  0.254628046751E-05
  0.276985788192E-05  0.301317504963E-05  0.327798613440E-05  0.356620228094E-05  0.387990575986E-05
  0.422136539410E-05  0.459305338317E-05  0.499766365215E-05  0.543813186371E-05  0.591765724417E-05
  0.643972638779E-05  0.700813921884E-05  0.762703730662E-05  0.830093474647E-05  0.903475183878E-05
  0.983385181871E-05  0.107040809121E-04  0.116518120172E-04  0.126839923396E-04  0.138081953341E-04
  0.150326773436E-04  0.163664393526E-04  0.178192943166E-04  0.194019405645E-04  0.211260418167E-04
  0.230043144083E-04  0.250506223577E-04  0.272800809789E-04  0.297091697912E-04  0.323558555504E-04
  0.352397262921E-04  0.383821373559E-04  0.418063704394E-04  0.455378068233E-04  0.496041159996E-04
  0.540354610431E-04  0.588647221734E-04  0.641277400778E-04  0.698635806911E-04  0.761148232694E-04
  0.829278737427E-04  0.903533054886E-04  0.984462298448E-04  0.107266698855E-03  0.116880142946E-03
  0.127357846433E-03  0.138777463986E-03  0.151223581413E-03  0.164788324383E-03  0.179572018963E-03
  0.195683908148E-03  0.213242928854E-03  0.232378554146E-03  0.253231705843E-03  0.275955742970E-03
  0.300717531890E-03  0.327698604369E-03  0.357096410189E-03  0.389125671377E-03  0.424019845528E-03
  0.462032706168E-03  0.503440048537E-03  0.548541529664E-03  0.597662652065E-03  0.651156900883E-03
  0.709408044747E-03  0.772832611127E-03  0.841882547389E-03  0.917048079217E-03  0.998860778459E-03
  0.108789685286E-02  0.118478067045E-02  0.129018853160E-02  0.140485270208E-02  0.152956572033E-02
  0.166518499241E-02  0.181263768785E-02  0.197292594917E-02  0.214713242787E-02  0.233642615839E-02
  0.254206878127E-02  0.276542112499E-02  0.300795015514E-02  0.327123629706E-02  0.355698113640E-02
  0.386701549919E-02  0.420330790968E-02  0.456797342088E-02  0.496328280789E-02  0.539167210949E-02
  0.585575249734E-02  0.635832044587E-02  0.690236816782E-02  0.749109427255E-02  0.812791459401E-02
  0.881647312485E-02  0.956065298098E-02  0.103645873076E-01  0.112326700230E-01  0.121695662802E-01
  0.131802225087E-01  0.142698758802E-01  0.154440630186E-01  0.167086277572E-01  0.180697277142E-01
  0.195338394399E-01  0.211077618535E-01  0.227986176606E-01  0.246138524088E-01  0.265612308024E-01
  0.286488298549E-01  0.308850284208E-01  0.332784925965E-01  0.358381564412E-01  0.385731974248E-01
  0.414930059741E-01  0.446071484741E-01  0.479253230609E-01  0.514573075550E-01  0.552128988853E-01
  0.592018433659E-01  0.634337571957E-01  0.679180365531E-01  0.726637566653E-01  0.776795592419E-01
  0.829735276828E-01  0.885530495089E-01  0.944246655140E-01  0.100593905227E+00  0.107065108382E+00
  0.113841232238E+00  0.120923644796E+00  0.128311904137E+00  0.136003524394E+00  0.143993729146E+00
  0.152275193328E+00  0.160837775144E+00  0.169668239846E+00  0.178749977690E+00  0.188062718864E+00
  0.197582248653E+00  0.207280126685E+00  0.217123414594E+00  0.227074417052E+00  0.237090441639E+00
  0.247123583586E+00  0.257120541955E+00  0.267022474280E+00  0.276764897109E+00  0.286277640153E+00
  0.295484861851E+00  0.304305133969E+00  0.312651602400E+00  0.320432230537E+00  0.327550130860E+00
  0.333903989933E+00  0.339388592659E+00  0.343895453463E+00  0.347313564902E+00  0.349530276888E+00
  0.350432320541E+00  0.349906987904E+00  0.347843470882E+00  0.344134350586E+00  0.338677217252E+00
  0.331376396449E+00  0.322144760647E+00  0.310905609146E+00  0.297594598884E+00  0.282161703928E+00
  0.264573176288E+00  0.244813477070E+00  0.222887144869E+00  0.198820566332E+00  0.172663611333E+00
  0.144491092236E+00  0.114404003800E+00  0.825304979967E-01  0.490265469347E-01  0.140762476487E-01
 -0.221082749747E-01 -0.592874063823E-01 -0.971950545581E-01 -0.135540160790E+00 -0.174008721470E+00
 -0.212266313257E+00 -0.249961079733E+00 -0.286727089414E+00 -0.322187932973E+00 -0.355960440167E+00
 -0.387658520168E+00 -0.416897361029E+00 -0.443298386326E+00 -0.466495114011E+00 -0.486139426901E+00
 -0.501907488435E+00 -0.513504954893E+00 -0.520671591386E+00 -0.523185463197E+00 -0.520866717610E+00
 -0.513580842169E+00 -0.501241248815E+00 -0.483811077160E+00 -0.461304182905E+00 -0.433785336373E+00
 -0.401369686941E+00 -0.364221557561E+00 -0.322552629965E+00 -0.276619573196E+00 -0.226721159767E+00
 -0.173194907243E+00 -0.116413280019E+00 -0.567794871625E-01  0.527708230200E-02  0.693057363393E-01
  0.134839607505E+00  0.201400956438E+00  0.268506558779E+00  0.335673059529E+00  0.402422148954E+00
  0.468285399168E+00  0.532808630366E+00  0.595555785129E+00  0.656112455994E+00  0.714089341403E+00
  0.769125871708E+00  0.820894052557E+00  0.869102314558E+00  0.913499033029E+00  0.953875414123E+00
  0.990067567163E+00  0.102195769461E+01  0.104947440137E+01  0.107259215315E+01  0.109132993687E+01
  0.110574919379E+01  0.111595111899E+01  0.112207343539E+01  0.112428676319E+01  0.112279071167E+01
  0.111780980581E+01  0.110958937200E+01  0.109839147882E+01  0.108449101912E+01  0.106817202574E+01
  0.104972426928E+01  0.102944020213E+01  0.100761228227E+01  0.984530712925E+00  0.960481613480E+00
  0.935745635505E+00  0.910597026359E+00  0.885303139576E+00  0.860124381916E+00  0.835314591412E+00
  0.811121832371E+00  0.787789601286E+00  0.765558437976E+00  0.744667947796E+00  0.725359245488E+00
  0.707877851055E+00  0.692477076968E+00  0.679421969739E+00  0.668993887899E+00  0.661495819184E+00
  0.000000000000E+00  0.000000000000E+00  0.000000000000E+00  0.000000000000E+00  0.000000000000E+00
  0.000000000000E+00  0.000000000000E+00  0.000000000000E+00  0.000000000000E+00  0.000000000000E+00
  0.000000000000E+00  0.000000000000E+00  0.000000000000E+00  0.000000000000E+00  0.000000000000E+00
  0.000000000000E+00  0.000000000000E+00  0.000000000000E+00  0.000000000000E+00  0.000000000000E+00
  0.000000000000E+00  0.000000000000E+00  0.000000000000E+00  0.000000000000E+00  0.000000000000E+00
  0.000000000000E+00
 pseudo wavefunction
  0.663973083320E-04  0.685563831571E-04  0.707856657092E-04  0.730874389684E-04  0.754640601516E-04
  0.779179631267E-04  0.804516609046E-04  0.830677482134E-04  0.857689041549E-04  0.885578949490E-04
  0.914375767658E-04  0.944108986511E-04  0.974809055464E-04  0.100650741407E-03  0.103923652422E-03
  0.107302990337E-03  0.110792215891E-03  0.114394902355E-03  0.118114739195E-03  0.121955535849E-03
  0.125921225627E-03  0.130015869744E-03  0.134243661472E-03  0.138608930439E-03  0.143116147062E-03
  0.147769927125E-03  0.152575036504E-03  0.157536396053E-03  0.162659086636E-03  0.167948354336E-03
  0.173409615825E-03  0.179048463913E-03  0.184870673271E-03  0.190882206352E-03  0.197089219489E-03
  0.203498069207E-03  0.210115318728E-03  0.216947744692E-03  0.224002344101E-03  0.231286341481E-03
  0.238807196281E-03  0.246572610513E-03  0.254590536640E-03  0.262869185718E-03  0.271417035806E-03
  0.280242840650E-03  0.289355638643E-03  0.298764762087E-03  0.308479846745E-03  0.318510841713E-03
  0.328868019604E-03  0.339561987072E-03  0.350603695674E-03  0.362004453083E-03  0.373775934668E-03
  0.385930195454E-03  0.398479682465E-03  0.411437247469E-03  0.424816160143E-03  0.438630121661E-03
  0.452893278723E-03  0.467620238046E-03  0.482826081319E-03  0.498526380652E-03  0.514737214519E-03
  0.531475184225E-03  0.548757430910E-03  0.566601653099E-03  0.585026124830E-03  0.604049714364E-03
  0.623691903513E-03  0.643972807587E-03  0.664913195996E-03  0.686534513517E-03  0.708858902260E-03
  0.731909224336E-03  0.755709085279E-03  0.780282858211E-03  0.805655708808E-03  0.831853621069E-03
  0.858903423927E-03  0.886832818725E-03  0.915670407579E-03  0.945445722678E-03  0.976189256518E-03
  0.100793249313E-02  0.104070794034E-02  0.107454916303E-02  0.110949081752E-02  0.114556868709E-02
  0.118281971856E-02  0.122128206021E-02  0.126099510078E-02  0.130199950981E-02  0.134433727935E-02
  0.138805176688E-02  0.143318773978E-02  0.147979142113E-02  0.152791053707E-02  0.157759436567E-02
  0.162889378738E-02  0.168186133716E-02  0.173655125825E-02  0.179301955774E-02  0.185132406392E-02
  0.191152448549E-02  0.197368247273E-02  0.203786168060E-02  0.210412783395E-02  0.217254879480E-02
  0.224319463187E-02  0.231613769232E-02  0.239145267580E-02  0.246921671101E-02  0.254950943463E-02
  0.263241307290E-02  0.271801252579E-02  0.280639545399E-02  0.289765236863E-02  0.299187672399E-02
  0.308916501318E-02  0.318961686696E-02  0.329333515577E-02  0.340042609505E-02  0.351099935403E-02
  0.362516816800E-02  0.374304945427E-02  0.386476393190E-02  0.399043624530E-02  0.412019509186E-02
  0.425417335374E-02  0.439250823392E-02  0.453534139668E-02  0.468281911267E-02  0.483509240868E-02
  0.499231722223E-02  0.515465456129E-02  0.532227066908E-02  0.549533719431E-02  0.567403136690E-02
  0.585853617944E-02  0.604904057454E-02  0.624573963825E-02  0.644883479977E-02  0.665853403770E-02
  0.687505209291E-02  0.709861068839E-02  0.732943875620E-02  0.756777267182E-02  0.781385649609E-02
  0.806794222506E-02  0.833029004785E-02  0.860116861302E-02  0.888085530346E-02  0.916963652030E-02
  0.946780797599E-02  0.977567499692E-02  0.100935528358E-01  0.104217669944E-01  0.107606535562E-01
  0.111105595307E-01  0.114718432081E-01  0.118448745260E-01  0.122300354477E-01  0.126277203529E-01
  0.130383364408E-01  0.134623041469E-01  0.139000575730E-01  0.143520449302E-01  0.148187289980E-01
  0.153005875971E-01  0.157981140775E-01  0.163118178227E-01  0.168422247707E-01  0.173898779505E-01
  0.179553380374E-01  0.185391839253E-01  0.191420133181E-01  0.197644433395E-01  0.204071111629E-01
  0.210706746621E-01  0.217558130819E-01  0.224632277310E-01  0.231936426975E-01  0.239478055864E-01
  0.247264882818E-01  0.255304877331E-01  0.263606267664E-01  0.272177549226E-01  0.281027493210E-01
  0.290165155521E-01  0.299599885979E-01  0.309341337816E-01  0.319399477484E-01  0.329784594768E-01
  0.340507313220E-01  0.351578600932E-01  0.363009781640E-01  0.374812546187E-01  0.386998964343E-01
  0.399581497005E-01  0.412573008766E-01  0.425986780892E-01  0.439836524698E-01  0.454136395338E-01
  0.468901006031E-01  0.484145442717E-01  0.499885279172E-01  0.516136592584E-01  0.532915979602E-01
  0.550240572874E-01  0.568128058086E-01  0.586596691508E-01  0.605665318062E-01  0.625353389931E-01
  0.645680985700E-01  0.666668830066E-01  0.688338314103E-01  0.710711516109E-01  0.733811223029E-01
  0.757660952478E-01  0.782284975350E-01  0.807708339040E-01  0.833956891262E-01  0.861057304479E-01
  0.889037100932E-01  0.917924678270E-01  0.947749335776E-01  0.978541301161E-01  0.101033175794E+00
  0.104315287332E+00  0.107703782663E+00  0.111202083820E+00  0.114813719871E+00  0.118542329886E+00
  0.122391665936E+00  0.126365596125E+00  0.130468107616E+00  0.134703309678E+00  0.139075436711E+00
  0.143588851246E+00  0.148248046896E+00  0.153057651247E+00  0.158022428643E+00  0.163147282857E+00
  0.168437259597E+00  0.173897548811E+00  0.179533486746E+00  0.185350557705E+00  0.191354395424E+00
  0.197550784023E+00  0.203945658410E+00  0.210545104063E+00  0.217355356064E+00  0.224382797243E+00
  0.231633955296E+00  0.239115498673E+00  0.246834231048E+00  0.254797084124E+00  0.263011108497E+00
  0.271483462261E+00  0.280221397000E+00  0.289232240734E+00  0.298523377355E+00  0.308102221993E+00
  0.317976191687E+00  0.328152670654E+00  0.338638969328E+00  0.349442276242E+00  0.360569601710E+00
  0.372027712105E+00  0.383823053380E+00  0.395961662330E+00  0.408449063876E+00  0.421290152469E+00
  0.434489055480E+00  0.448048976233E+00  0.461972014061E+00  0.476258958553E+00  0.490909054853E+00
  0.505919736688E+00  0.521286323501E+00  0.537001677907E+00  0.553055819501E+00  0.569435490958E+00
  0.586123672371E+00  0.603099039890E+00  0.620335365025E+00  0.637800851486E+00  0.655457407244E+00
  0.673259850588E+00  0.691155050581E+00  0.709081004324E+00  0.726965856163E+00  0.744726867371E+00
  0.762269349022E+00  0.779485575958E+00  0.796253705886E+00  0.812436734888E+00  0.827881528993E+00
  0.842417980907E+00  0.855858351372E+00  0.867996865793E+00  0.878609648187E+00  0.887455085695E+00
  0.894274726947E+00  0.898794825303E+00  0.900728642006E+00  0.899779622577E+00  0.895641728930E+00
  0.888099106679E+00  0.877249596894E+00  0.863290601043E+00  0.846435350674E+00  0.826910919526E+00
  0.804956146696E+00  0.780819422545E+00  0.754756311374E+00  0.727026983398E+00  0.697893468267E+00
  0.667616762372E+00  0.636453867645E+00  0.604654870553E+00  0.572460186811E+00  0.540098111206E+00
  0.507782789743E+00  0.475712700805E+00  0.444069685786E+00  0.413018518780E+00  0.382706955904E+00
  0.353266164144E+00  0.324811401804E+00  0.297442811210E+00  0.271246191297E+00  0.246293643244E+00
  0.222644023559E+00  0.200343189737E+00  0.179424074730E+00  0.159906667908E+00  0.141798004162E+00
  0.125092265681E+00
 ae wavefunction
 -0.624992399511E-02 -0.641428919989E-02 -0.658288777285E-02 -0.675582405328E-02 -0.693320465143E-02
 -0.711513847970E-02 -0.730173678298E-02 -0.749311316794E-02 -0.768938363120E-02 -0.789066658625E-02
 -0.809708288892E-02 -0.830875586133E-02 -0.852581131399E-02 -0.874837756601E-02 -0.897658546314E-02
 -0.921056839344E-02 -0.945046230034E-02 -0.969640569282E-02 -0.994853965259E-02 -0.102070078377E-01
 -0.104719564828E-01 -0.107435343949E-01 -0.110218929450E-01 -0.113071860558E-01 -0.115995701829E-01
 -0.118992042916E-01 -0.122062498278E-01 -0.125208706822E-01 -0.128432331477E-01 -0.131735058701E-01
 -0.135118597907E-01 -0.138584680802E-01 -0.142135060643E-01 -0.145771511394E-01 -0.149495826786E-01
 -0.153309819260E-01 -0.157215318805E-01 -0.161214171664E-01 -0.165308238915E-01 -0.169499394906E-01
 -0.173789525551E-01 -0.178180526457E-01 -0.182674300892E-01 -0.187272757570E-01 -0.191977808251E-01
 -0.196791365136E-01 -0.201715338055E-01 -0.206751631424E-01 -0.211902140968E-01 -0.217168750193E-01
 -0.222553326585E-01 -0.228057717534E-01 -0.233683745958E-01 -0.239433205611E-01 -0.245307856060E-01
 -0.251309417317E-01 -0.257439564092E-01 -0.263699919672E-01 -0.270092049377E-01 -0.276617453600E-01
 -0.283277560383E-01 -0.290073717532E-01 -0.297007184219E-01 -0.304079122080E-01 -0.311290585748E-01
 -0.318642512829E-01 -0.326135713267E-01 -0.333770858092E-01 -0.341548467506E-01 -0.349468898294E-01
 -0.357532330518E-01 -0.365738753475E-01 -0.374087950879E-01 -0.382579485247E-01 -0.391212681455E-01
 -0.399986609427E-01 -0.408900065941E-01 -0.417951555507E-01 -0.427139270297E-01 -0.436461069094E-01
 -0.445914455240E-01 -0.455496553538E-01 -0.465204086106E-01 -0.475033347137E-01 -0.484980176566E-01
 -0.495039932599E-01 -0.505207463115E-01 -0.515477075903E-01 -0.525842507752E-01 -0.536296892356E-01
 -0.546832727075E-01 -0.557441838520E-01 -0.568115347004E-01 -0.578843629864E-01 -0.589616283692E-01
 -0.600422085501E-01 -0.611248952891E-01 -0.622083903264E-01 -0.632913012156E-01 -0.643721370790E-01
 -0.654493042928E-01 -0.665211021161E-01 -0.675857182758E-01 -0.686412245239E-01 -0.696855721845E-01
 -0.707165877103E-01 -0.717319682722E-01 -0.727292774064E-01 -0.737059407473E-01 -0.746592418782E-01
 -0.755863183347E-01 -0.764841577977E-01 -0.773495945212E-01 -0.781793060378E-01 -0.789698101960E-01
 -0.797174625824E-01 -0.804184543901E-01 -0.810688107985E-01 -0.816643899349E-01 -0.822008824947E-01
 -0.826738121017E-01 -0.830785364970E-01 -0.834102496499E-01 -0.836639848925E-01 -0.838346191833E-01
 -0.839168786137E-01 -0.839053452771E-01 -0.837944656261E-01 -0.835785604499E-01 -0.832518366098E-01
 -0.828084006761E-01 -0.822422746152E-01 -0.815474136798E-01 -0.807177266588E-01 -0.797470986467E-01
 -0.786294164934E-01 -0.773585970965E-01 -0.759286186966E-01 -0.743335553330E-01 -0.725676146125E-01
 -0.706251789382E-01 -0.685008503315E-01 -0.661894989728E-01 -0.636863155656E-01 -0.609868676127E-01
 -0.580871596658E-01 -0.549836975856E-01 -0.516735568113E-01 -0.481544546053E-01 -0.444248261893E-01
 -0.404839046409E-01 -0.363318043615E-01 -0.319696078586E-01 -0.273994555191E-01 -0.226246379646E-01
 -0.176496904944E-01 -0.124804890295E-01 -0.712434686667E-02 -0.159011145010E-02  0.411173974060E-02
  0.996900519324E-02  0.159676683734E-01  0.220918109677E-01  0.283235317020E-01  0.346428722106E-01
  0.410277515767E-01  0.474539113640E-01  0.538948731360E-01  0.603219106927E-01  0.667040394401E-01
  0.730080254756E-01  0.791984170837E-01  0.852376014009E-01  0.910858890145E-01  0.967016292319E-01
  0.102041358678E+00  0.107059985766E+00  0.111711013443E+00  0.115946802408E+00  0.119718876775E+00
  0.122978273888E+00  0.125675939592E+00  0.127763169886E+00  0.129192099345E+00  0.129916236050E+00
  0.129891042128E+00  0.129074558108E+00  0.127428068433E+00  0.124916804440E+00  0.121510679958E+00
  0.117185053528E+00  0.111921509860E+00  0.105708651865E+00  0.985428931003E-01  0.904292390804E-01
  0.813820444238E-01  0.714257314382E-01  0.605954543938E-01  0.489376925471E-01  0.365107539351E-01
  0.233851711657E-01  0.964396995112E-02 -0.461720891095E-02 -0.192901528996E-01 -0.342543041489E-01
 -0.493771848576E-01 -0.645150358350E-01 -0.795136805810E-01 -0.942096261476E-01 -0.108431411399E+00
 -0.122001212518E+00 -0.134736713399E+00 -0.146453243346E+00 -0.156966175164E+00 -0.166093565004E+00
 -0.173659004775E+00 -0.179494651506E+00 -0.183444393847E+00 -0.185367110923E+00 -0.185139971852E+00
 -0.182661717066E+00 -0.177855856539E+00 -0.170673715744E+00 -0.161097257011E+00 -0.149141601606E+00
 -0.134857176204E+00 -0.118331406893E+00 -0.996898849297E-01 -0.790969316273E-01 -0.567554955667E-01
 -0.329063240447E-01 -0.782636244734E-02  0.181736501137E-01  0.447524031986E-01  0.715420491384E-01
  0.981530162996E-01  0.124179533712E+00  0.149205754737E+00  0.172812326327E+00  0.194583243930E+00
  0.214112896347E+00  0.231013338446E+00  0.244921921090E+00  0.255509248158E+00  0.262487046038E+00
  0.265615370050E+00  0.264708828987E+00  0.259641788749E+00  0.250352563698E+00  0.236846528885E+00
  0.219198034163E+00  0.197551010154E+00  0.172118211007E+00  0.143179105249E+00  0.111076478216E+00
  0.762118411875E-01  0.390397589058E-01  0.612158273920E-04 -0.401838529394E-01 -0.811247348609E-01
 -0.122168680092E+00 -0.162710063643E+00 -0.202139815957E+00 -0.239854959196E+00 -0.275268078829E+00
 -0.307816554587E+00 -0.336971372344E+00 -0.362245335541E+00 -0.383200496518E+00 -0.399454632855E+00
 -0.410686627768E+00 -0.416640682803E+00 -0.417129400115E+00 -0.412035870051E+00 -0.401314915747E+00
 -0.384993540045E+00 -0.363170467341E+00 -0.336014571645E+00 -0.303762022761E+00 -0.266712108511E+00
 -0.225221822891E+00 -0.179699393896E+00 -0.130596964636E+00 -0.784026534935E-01 -0.236322241765E-01
  0.331794067165E-01  0.914866058107E-01  0.150741202110E+00  0.210400232539E+00  0.269933107529E+00
  0.328828080219E+00  0.386597937346E+00  0.442784858768E+00  0.496964419707E+00  0.548748742947E+00
  0.597788820802E+00  0.643776055995E+00  0.686443079864E+00  0.725563924862E+00  0.760953631694E+00
  0.792467380456E+00  0.819999234316E+00  0.843480583887E+00  0.862878370881E+00  0.878193167123E+00
  0.889457167346E+00  0.896732147069E+00  0.900107420283E+00  0.899697822773E+00  0.895641728930E+00
  0.888099106679E+00  0.877249596894E+00  0.863290601043E+00  0.846435350674E+00  0.826910919526E+00
  0.804956146696E+00  0.780819422545E+00  0.754756311374E+00  0.727026983398E+00  0.697893468267E+00
  0.667616762372E+00  0.636453867645E+00  0.604654870553E+00  0.572460186811E+00  0.540098111206E+00
  0.507782789743E+00  0.475712700805E+00  0.444069685786E+00  0.413018518780E+00  0.382706955904E+00
  0.353266164144E+00  0.324811401804E+00  0.297442811210E+00  0.271246191297E+00  0.246293643244E+00
  0.222644023559E+00  0.200343189737E+00  0.179424074730E+00  0.159906667908E+00  0.141798004162E+00
  0.125092265681E+00
 pseudo wavefunction
  0.105745963588E-03  0.109184558520E-03  0.112734967982E-03  0.116400827902E-03  0.120185892441E-03
  0.124094037837E-03  0.128129266371E-03  0.132295710471E-03  0.136597636939E-03  0.141039451324E-03
  0.145625702432E-03  0.150361086984E-03  0.155250454429E-03  0.160298811906E-03  0.165511329374E-03
  0.170893344907E-03  0.176450370159E-03  0.182188096008E-03  0.188112398389E-03  0.194229344304E-03
  0.200545198041E-03  0.207066427585E-03  0.213799711246E-03  0.220751944495E-03  0.227930247025E-03
  0.235341970046E-03  0.242994703811E-03  0.250896285387E-03  0.259054806684E-03  0.267478622741E-03
  0.276176360283E-03  0.285156926551E-03  0.294429518432E-03  0.304003631870E-03  0.313889071592E-03
  0.324095961155E-03  0.334634753304E-03  0.345516240685E-03  0.356751566890E-03  0.368352237876E-03
  0.380330133745E-03  0.392697520908E-03  0.405467064651E-03  0.418651842102E-03  0.432265355627E-03
  0.446321546653E-03  0.460834809948E-03  0.475820008363E-03  0.491292488050E-03  0.507268094183E-03
  0.523763187176E-03  0.540794659449E-03  0.558379952718E-03  0.576537075860E-03  0.595284623356E-03
  0.614641794335E-03  0.634628412233E-03  0.655264945092E-03  0.676572526529E-03  0.698572977369E-03
  0.721288827997E-03  0.744743341433E-03  0.768960537147E-03  0.793965215668E-03  0.819782983973E-03
  0.846440281716E-03  0.873964408300E-03  0.902383550840E-03  0.931726813024E-03  0.962024244921E-03
  0.993306873751E-03  0.102560673566E-02  0.105895690855E-02  0.109339154590E-02  0.112894591179E-02
  0.116565641702E-02  0.120356065636E-02  0.124269744705E-02  0.128310686862E-02  0.132483030384E-02
  0.136791048117E-02  0.141239151848E-02  0.145831896826E-02  0.150573986424E-02  0.155470276957E-02
  0.160525782657E-02  0.165745680806E-02  0.171135317036E-02  0.176700210808E-02  0.182446061063E-02
  0.188378752055E-02  0.194504359381E-02  0.200829156202E-02  0.207359619666E-02  0.214102437541E-02
  0.221064515067E-02  0.228252982024E-02  0.235675200035E-02  0.243338770106E-02  0.251251540407E-02
  0.259421614315E-02  0.267857358706E-02  0.276567412528E-02  0.285560695645E-02  0.294846417976E-02
  0.304434088923E-02  0.314333527109E-02  0.324554870438E-02  0.335108586474E-02  0.346005483159E-02
  0.357256719886E-02  0.368873818923E-02  0.380868677216E-02  0.393253578572E-02  0.406041206238E-02
  0.419244655889E-02  0.432877449044E-02  0.446953546907E-02  0.461487364672E-02  0.476493786279E-02
  0.491988179660E-02  0.507986412479E-02  0.524504868380E-02  0.541560463766E-02  0.559170665124E-02
  0.577353506912E-02  0.596127610032E-02  0.615512200894E-02  0.635527131112E-02  0.656192897832E-02
  0.677530664724E-02  0.699562283658E-02  0.722310317080E-02  0.745798061124E-02  0.770049569466E-02
  0.795089677965E-02  0.820944030090E-02  0.847639103190E-02  0.875202235610E-02  0.903661654689E-02
  0.933046505669E-02  0.963386881548E-02  0.994713853899E-02  0.102705950469E-01  0.106045695916E-01
  0.109494041971E-01  0.113054520097E-01  0.116730776597E-01  0.120526576343E-01  0.124445806642E-01
  0.128492481208E-01  0.132670744278E-01  0.136984874857E-01  0.141439291099E-01  0.146038554835E-01
  0.150787376242E-01  0.155690618673E-01  0.160753303633E-01  0.165980615928E-01  0.171377908974E-01
  0.176950710280E-01  0.182704727112E-01  0.188645852341E-01  0.194780170476E-01  0.201113963904E-01
  0.207653719319E-01  0.214406134373E-01  0.221378124537E-01  0.228576830186E-01  0.236009623917E-01
  0.243684118102E-01  0.251608172688E-01  0.259789903252E-01  0.268237689321E-01  0.276960182953E-01
  0.285966317611E-01  0.295265317314E-01  0.304866706095E-01  0.314780317761E-01  0.325016305973E-01
  0.335585154659E-01  0.346497688756E-01  0.357765085314E-01  0.369398884950E-01  0.381411003688E-01
  0.393813745173E-01  0.406619813290E-01  0.419842325195E-01  0.433494824766E-01  0.447591296497E-01
  0.462146179841E-01  0.477174384027E-01  0.492691303352E-01  0.508712832980E-01  0.525255385247E-01
  0.542335906506E-01  0.559971894520E-01  0.578181416413E-01  0.596983127219E-01  0.616396289024E-01
  0.636440790741E-01  0.657137168522E-01  0.678506626835E-01  0.700571060230E-01  0.723353075808E-01
  0.746876016423E-01  0.771163984632E-01  0.796241867424E-01  0.822135361747E-01  0.848871000859E-01
  0.876476181523E-01  0.904979192086E-01  0.934409241443E-01  0.964796488934E-01  0.996172075188E-01
  0.102856815394E+00  0.106201792484E+00  0.109655566733E+00  0.113221677549E+00  0.116903779401E+00
  0.120705645526E+00  0.124631171747E+00  0.128684380396E+00  0.132869424363E+00  0.137190591253E+00
  0.141652307661E+00  0.146259143562E+00  0.151015816815E+00  0.155927197783E+00  0.160998314064E+00
  0.166234355324E+00  0.171640678238E+00  0.177222811524E+00  0.182986461060E+00  0.188937515077E+00
  0.195082049418E+00  0.201426332827E+00  0.207976832270E+00  0.214740218246E+00  0.221723370055E+00
  0.228933381003E+00  0.236377563466E+00  0.244063453794E+00  0.251998816960E+00  0.260191650891E+00
  0.268650190384E+00  0.277382910506E+00  0.286398529328E+00  0.295706009873E+00  0.305314561069E+00
  0.315233637523E+00  0.325472937853E+00  0.336042401310E+00  0.346952202337E+00  0.358212742700E+00
  0.369834640708E+00  0.381828717032E+00  0.394205976478E+00  0.406977585031E+00  0.420154841335E+00
  0.433749141667E+00  0.447771937324E+00  0.462234683136E+00  0.477148775694E+00  0.492525479605E+00
  0.508375839890E+00  0.524710578357E+00  0.541539971463E+00  0.558873706882E+00  0.576720715574E+00
  0.595088975787E+00  0.613985284946E+00  0.633414994903E+00  0.653381705530E+00  0.673886911031E+00
  0.694929592845E+00  0.716505752372E+00  0.738607876198E+00  0.761224325940E+00  0.784338644318E+00
  0.807928768662E+00  0.831966142768E+00  0.856414717987E+00  0.881229834583E+00  0.906356975015E+00
  0.931730381851E+00  0.957271534695E+00  0.982887483008E+00  0.100846903515E+01  0.103388880864E+01
  0.105899915267E+01  0.108362996195E+01  0.110758641039E+01  0.113064664582E+01  0.115255950127E+01
  0.117304229621E+01  0.119177882184E+01  0.120841762841E+01  0.122257075955E+01  0.123381310849E+01
  0.124168260283E+01  0.124568145744E+01  0.124527876785E+01  0.123991474490E+01  0.122900691537E+01
  0.121195862466E+01  0.118817017466E+01  0.115705290291E+01  0.111804645294E+01  0.107063938928E+01
  0.101448471862E+01  0.949678197357E+00  0.876458219838E+00  0.795109376227E+00  0.705961820443E+00
  0.000000000000E+00  0.000000000000E+00  0.000000000000E+00  0.000000000000E+00  0.000000000000E+00
  0.000000000000E+00  0.000000000000E+00  0.000000000000E+00  0.000000000000E+00  0.000000000000E+00
  0.000000000000E+00  0.000000000000E+00  0.000000000000E+00  0.000000000000E+00  0.000000000000E+00
  0.000000000000E+00  0.000000000000E+00  0.000000000000E+00  0.000000000000E+00  0.000000000000E+00
  0.000000000000E+00  0.000000000000E+00  0.000000000000E+00  0.000000000000E+00  0.000000000000E+00
  0.000000000000E+00
 ae wavefunction
 -0.958135825926E-02 -0.983333600692E-02 -0.100918036569E-01 -0.103569211648E-01 -0.106288519677E-01
 -0.109077630320E-01 -0.111938248999E-01 -0.114872117341E-01 -0.117881013615E-01 -0.120966753136E-01
 -0.124131188667E-01 -0.127376210774E-01 -0.130703748175E-01 -0.134115768043E-01 -0.137614276287E-01
 -0.141201317788E-01 -0.144878976603E-01 -0.148649376119E-01 -0.152514679164E-01 -0.156477088061E-01
 -0.160538844632E-01 -0.164702230136E-01 -0.168969565139E-01 -0.173343209322E-01 -0.177825561196E-01
 -0.182419057749E-01 -0.187126173995E-01 -0.191949422426E-01 -0.196891352363E-01 -0.201954549197E-01
 -0.207141633502E-01 -0.212455260039E-01 -0.217898116597E-01 -0.223472922715E-01 -0.229182428230E-01
 -0.235029411664E-01 -0.241016678437E-01 -0.247147058889E-01 -0.253423406097E-01 -0.259848593486E-01
 -0.266425512206E-01 -0.273157068268E-01 -0.280046179424E-01 -0.287095771775E-01 -0.294308776090E-01
 -0.301688123812E-01 -0.309236742746E-01 -0.316957552396E-01 -0.324853458942E-01 -0.332927349825E-01
 -0.341182087930E-01 -0.349620505329E-01 -0.358245396574E-01 -0.367059511505E-01 -0.376065547552E-01
 -0.385266141495E-01 -0.394663860671E-01 -0.404261193572E-01 -0.414060539825E-01 -0.424064199514E-01
 -0.434274361808E-01 -0.444693092858E-01 -0.455322322940E-01 -0.466163832791E-01 -0.477219239107E-01
 -0.488489979171E-01 -0.499977294549E-01 -0.511682213839E-01 -0.523605534409E-01 -0.535747803095E-01
 -0.548109295803E-01 -0.560689995976E-01 -0.573489571888E-01 -0.586507352699E-01 -0.599742303245E-01
 -0.613192997502E-01 -0.626857590692E-01 -0.640733789965E-01 -0.654818823635E-01 -0.669109408909E-01
 -0.683601718067E-01 -0.698291343068E-01 -0.713173258519E-01 -0.728241782990E-01 -0.743490538634E-01
 -0.758912409082E-01 -0.774499495590E-01 -0.790243071422E-01 -0.806133534447E-01 -0.822160357953E-01
 -0.838312039674E-01 -0.854576049036E-01 -0.870938772659E-01 -0.887385458123E-01 -0.903900156066E-01
 -0.920465660650E-01 -0.937063448493E-01 -0.953673616138E-01 -0.970274816179E-01 -0.986844192179E-01
 -0.100335731253E+00 -0.101978810343E+00 -0.103610878121E+00 -0.105228978422E+00 -0.106829970453E+00
 -0.108410521988E+00 -0.109967102599E+00 -0.111495976985E+00 -0.112993198434E+00 -0.114454602456E+00
 -0.115875800660E+00 -0.117252174916E+00 -0.118578871878E+00 -0.119850797936E+00 -0.121062614668E+00
 -0.122208734898E+00 -0.123283319418E+00 -0.124280274511E+00 -0.125193250354E+00 -0.126015640443E+00
 -0.126740582139E+00 -0.127360958492E+00 -0.127869401483E+00 -0.128258296823E+00 -0.128519790494E+00
 -0.128645797190E+00 -0.128628010851E+00 -0.128457917471E+00 -0.128126810403E+00 -0.127625808344E+00
 -0.126945876247E+00 -0.126077849370E+00 -0.125012460710E+00 -0.123740372042E+00 -0.122252208835E+00
 -0.120538599269E+00 -0.118590217611E+00 -0.116397832200E+00 -0.113952358273E+00 -0.111244915870E+00
 -0.108266893051E+00 -0.105010014610E+00 -0.101466416506E+00 -0.976287261436E-01 -0.934901486568E-01
 -0.890445592870E-01 -0.842866019065E-01 -0.792117936924E-01 -0.738166358942E-01 -0.680987305687E-01
 -0.620569030818E-01 -0.556913300844E-01 -0.490036725737E-01 -0.419972135373E-01 -0.346769995596E-01
 -0.270499856288E-01 -0.191251822458E-01 -0.109138037753E-01 -0.242941682575E-02  0.631191272614E-02
  0.152914756089E-01  0.244877796411E-01  0.338764167055E-01  0.434299382716E-01  0.531177417293E-01
  0.629059700183E-01  0.727574273440E-01  0.826315140423E-01  0.924841840121E-01  0.102267928420E+00
  0.111931789636E+00  0.121421409542E+00  0.130679116423E+00  0.139644054714E+00  0.148252361762E+00
  0.156437395713E+00  0.164130018412E+00  0.171258936988E+00  0.177751107529E+00  0.183532203846E+00
  0.188527153944E+00  0.192660746229E+00  0.195858306848E+00  0.198046448750E+00  0.199153892119E+00
  0.199112354736E+00  0.197857509574E+00  0.195330005532E+00  0.191476545633E+00  0.186251015298E+00
  0.179615651440E+00  0.171542241110E+00  0.162013336372E+00  0.151023469836E+00  0.138580353134E+00
  0.124706038357E+00  0.109438020351E+00  0.928302557326E-01  0.749540726065E-01  0.558989434267E-01
  0.357730921714E-01  0.147039062918E-01 -0.716187617918E-02 -0.296582332063E-01 -0.526002061527E-01
 -0.757845525965E-01 -0.989907262364E-01 -0.121982202939E+00 -0.144508170225E+00 -0.166305596524E+00
 -0.187101695338E+00 -0.206616796085E+00 -0.224567625360E+00 -0.240670988030E+00 -0.254647819630E+00
 -0.266227565275E+00 -0.275152830504E+00 -0.281184242963E+00 -0.284105456225E+00 -0.283728216424E+00
 -0.279897401345E+00 -0.272495932322E+00 -0.261449452744E+00 -0.246730662035E+00 -0.228363190370E+00
 -0.206424896821E+00 -0.181050472751E+00 -0.152433233904E+00 -0.120825989467E+00 -0.865408852277E-01
 -0.499481313636E-01 -0.114735433849E-01  0.284051527321E-01  0.691632735613E-01  0.110235380053E+00
  0.151022678584E+00  0.190901517492E+00  0.229232806975E+00  0.265372127221E+00  0.298680279647E+00
  0.328534134857E+00  0.354337835628E+00  0.375534552847E+00  0.391618746897E+00  0.402148296896E+00
  0.406755614073E+00  0.405157249838E+00  0.397161937831E+00  0.382677081737E+00  0.361713584513E+00
  0.334388834778E+00  0.300927679902E+00  0.261661299716E+00  0.217023996461E+00  0.167547996418E+00
  0.113856407064E+00  0.566544988187E-01 -0.328050625014E-02 -0.651109478048E-01 -0.127951343574E+00
 -0.190881899948E+00 -0.252962696172E+00 -0.313248307577E+00 -0.370802618977E+00 -0.424713566972E+00
 -0.474107540992E+00 -0.518163168527E+00 -0.556124205056E+00 -0.587311251582E+00 -0.611132029917E+00
 -0.627089998246E+00 -0.634791195716E+00 -0.633949371312E+00 -0.624389600716E+00 -0.606050615536E+00
 -0.578985903137E+00 -0.543363401057E+00 -0.499463457792E+00 -0.447674798129E+00 -0.388488427122E+00
 -0.322489609965E+00 -0.250348193609E+00 -0.172807597154E+00 -0.906728171776E-01 -0.479780236108E-02
  0.839274529218E-01  0.174589760126E+00  0.266265225549E+00  0.358031106812E+00  0.448976814254E+00
  0.538213881227E+00  0.624884782026E+00  0.708170521047E+00  0.787296959930E+00  0.861539902323E+00
  0.930228975594E+00  0.992750396115E+00  0.104854871973E+01  0.109712770866E+01  0.113805045162E+01
  0.117093888781E+01  0.119547288345E+01  0.121138900717E+01  0.121847913375E+01  0.121658899798E+01
  0.120561678972E+01  0.118551186458E+01  0.115627361457E+01  0.111795052223E+01  0.107063938928E+01
  0.101448471862E+01  0.949678197357E+00  0.876458219838E+00  0.795109376227E+00  0.705961820443E+00
  0.000000000000E+00  0.000000000000E+00  0.000000000000E+00  0.000000000000E+00  0.000000000000E+00
  0.000000000000E+00  0.000000000000E+00  0.000000000000E+00  0.000000000000E+00  0.000000000000E+00
  0.000000000000E+00  0.000000000000E+00  0.000000000000E+00  0.000000000000E+00  0.000000000000E+00
  0.000000000000E+00  0.000000000000E+00  0.000000000000E+00  0.000000000000E+00  0.000000000000E+00
  0.000000000000E+00  0.000000000000E+00  0.000000000000E+00  0.000000000000E+00  0.000000000000E+00
  0.000000000000E+00
 pseudo wavefunction
  0.325488405603E-08  0.347000715147E-08  0.369934824838E-08  0.394384704859E-08  0.420450536109E-08
  0.448239120681E-08  0.477864319477E-08  0.509447518738E-08  0.543118127412E-08  0.579014107398E-08
  0.617282538826E-08  0.658080222704E-08  0.701574323397E-08  0.747943053564E-08  0.797376404366E-08
  0.850076923935E-08  0.906260547299E-08  0.966157481147E-08  0.103001314708E-07  0.109808918721E-07
  0.117066453620E-07  0.124803656416E-07  0.133052229514E-07  0.141845970604E-07  0.151220911147E-07
  0.161215464012E-07  0.171870580864E-07  0.183229919965E-07  0.195340025053E-07  0.208250516057E-07
  0.222014292404E-07  0.236687749772E-07  0.252331011167E-07  0.269008173267E-07  0.286787569054E-07
  0.305742047803E-07  0.325949273570E-07  0.347492043418E-07  0.370458626668E-07  0.394943126572E-07
  0.421045865891E-07  0.448873797964E-07  0.478540944930E-07  0.510168864929E-07  0.543887150170E-07
  0.579833957928E-07  0.618156576621E-07  0.659012029320E-07  0.702567717128E-07  0.749002105093E-07
  0.798505453450E-07  0.851280597196E-07  0.907543777184E-07  0.967525526149E-07  0.103147161330E-06
  0.109964405132E-06  0.117232216996E-06  0.124980376055E-06  0.133240629618E-06  0.142046823250E-06
  0.151435039454E-06  0.161443745512E-06  0.172113951105E-06  0.183489376343E-06  0.195616630906E-06
  0.208545405022E-06  0.222328673071E-06  0.237022910638E-06  0.252688325922E-06  0.269389106428E-06
  0.287193681977E-06  0.306175005083E-06  0.326410849879E-06  0.347984130780E-06  0.370983242228E-06
  0.395502420874E-06  0.421642131708E-06  0.449509479706E-06  0.479218648686E-06  0.510891369165E-06
  0.544657417145E-06  0.580655145854E-06  0.619032052649E-06  0.659945383367E-06  0.703562776636E-06
  0.750062950761E-06  0.799636436016E-06  0.852486355323E-06  0.908829256548E-06  0.968895999786E-06
  0.103293270331E-05  0.110120175201E-05  0.117398287253E-05  0.125157427944E-05  0.133429389712E-05
  0.142248066250E-05  0.151649591380E-05  0.161672487117E-05  0.172357821506E-05  0.183749376901E-05
  0.195893829365E-05  0.208840939923E-05  0.222643758460E-05  0.237358841097E-05  0.253046481925E-05
  0.269770960069E-05  0.287600803072E-05  0.306609067695E-05  0.326873639265E-05  0.348477550825E-05
  0.371509323366E-05  0.396063328553E-05  0.422240175423E-05  0.450147122647E-05  0.479898518041E-05
  0.511616267121E-05  0.545430332640E-05  0.581479267135E-05  0.619910780681E-05  0.660882346167E-05
  0.704561844590E-05  0.751128252995E-05  0.800772377898E-05  0.853697637177E-05  0.910120893666E-05
  0.970273343833E-05  0.103440146522E-04  0.110276802651E-04  0.117565316436E-04  0.125335553141E-04
  0.133619352021E-04  0.142450656808E-04  0.151865654811E-04  0.161902925234E-04  0.172603597274E-04
  0.184011518693E-04  0.196173435527E-04  0.209139183668E-04  0.222961893130E-04  0.237698205811E-04
  0.253408507650E-04  0.270157176148E-04  0.288012844245E-04  0.307048681650E-04  0.327342694779E-04
  0.348978046525E-04  0.372043397178E-04  0.396633267890E-04  0.422848428186E-04  0.450796309102E-04
  0.480591443653E-04  0.512355936438E-04  0.546219964315E-04  0.582322310196E-04  0.620810932166E-04
  0.661843570255E-04  0.705588393370E-04  0.752224689029E-04  0.801943598761E-04  0.854948902168E-04
  0.911457852905E-04  0.971702069995E-04  0.103592848817E-03  0.110440037113E-03  0.117739839192E-03
  0.125522178491E-03  0.133818957396E-03  0.142664188215E-03  0.152094132813E-03  0.162147451514E-03
  0.172865361868E-03  0.184291807949E-03  0.196473640875E-03  0.209460811310E-03  0.223306574734E-03
  0.238067710340E-03  0.253804754459E-03  0.270582249485E-03  0.288469009341E-03  0.307538402580E-03
  0.327868654305E-03  0.349543168162E-03  0.372650869762E-03  0.397286572946E-03  0.423551370445E-03
  0.451553050555E-03  0.481406541592E-03  0.513234385968E-03  0.547167245915E-03  0.583344442957E-03
  0.621914533425E-03  0.663035922449E-03  0.706877519018E-03  0.753619434901E-03  0.803453730396E-03
  0.856585210093E-03  0.913232272055E-03  0.973627814051E-03  0.103802020075E-02  0.110667429604E-02
  0.117987256495E-02  0.125791624992E-02  0.134112662662E-02  0.142984634471E-02  0.152444085954E-02
  0.162529996099E-02  0.173283940632E-02  0.184750266416E-02  0.196976277765E-02  0.210012435481E-02
  0.223912569545E-02  0.238734106392E-02  0.254538311849E-02  0.271390550809E-02  0.289360564879E-02
  0.308522769269E-02  0.328956570328E-02  0.350746705220E-02  0.373983605351E-02  0.398763785304E-02
  0.425190259142E-02  0.453372986119E-02  0.483429347991E-02  0.515484660277E-02  0.549672720048E-02
  0.586136392991E-02  0.625028242749E-02  0.666511205775E-02  0.710759315194E-02  0.757958477494E-02
  0.808307306131E-02  0.862018016539E-02  0.919317387365E-02  0.980447793179E-02  0.104566831437E-01
  0.111525593037E-01  0.118950680299E-01  0.126873765702E-01  0.135328726611E-01  0.144351805248E-01
  0.153981780969E-01  0.164260155861E-01  0.175231354755E-01  0.186942940820E-01  0.199445848053E-01
  0.212794632004E-01  0.227047740271E-01  0.242267804345E-01  0.258521954554E-01  0.275882159953E-01
  0.294425595155E-01  0.314235036216E-01  0.335399287842E-01  0.358013644279E-01  0.382180386423E-01
  0.408009317747E-01  0.435618341775E-01  0.465134083893E-01  0.496692560325E-01  0.530439897099E-01
  0.566533101754E-01  0.605140890415E-01  0.646444572605E-01  0.690638995818E-01  0.737933551342E-01
  0.788553242150E-01  0.842739812711E-01  0.900752939384E-01  0.962871478489E-01  0.102939476720E+00
  0.110064396992E+00  0.117696345994E+00  0.125872222209E+00  0.134631525825E+00  0.144016497147E+00
  0.154072249861E+00  0.164846895340E+00  0.176391653301E+00  0.188760943080E+00  0.202012448561E+00
  0.216207148443E+00  0.231409301928E+00  0.247686378176E+00  0.265108915915E+00  0.283750297477E+00
  0.303686419278E+00  0.324995238379E+00  0.347756172387E+00  0.372049327640E+00  0.397954528505E+00
  0.425550118931E+00  0.454911506335E+00  0.486109417792E+00  0.519207839720E+00  0.554261615246E+00
  0.591313678752E+00  0.630391915310E+00  0.671505644516E+00  0.714641744281E+00  0.759760451128E+00
  0.806790899995E+00  0.855626498961E+00  0.906120272547E+00  0.958080351058E+00  0.101126583135E+01
  0.106538328443E+01  0.112008423375E+01  0.117496396958E+01  0.122956209284E+01  0.128336518632E+01
  0.133581198142E+01  0.138635045224E+01  0.143483848042E+01  0.148137583471E+01  0.152609615770E+01
  0.000000000000E+00  0.000000000000E+00  0.000000000000E+00  0.000000000000E+00  0.000000000000E+00
  0.000000000000E+00  0.000000000000E+00  0.000000000000E+00  0.000000000000E+00  0.000000000000E+00
  0.000000000000E+00  0.000000000000E+00  0.000000000000E+00  0.000000000000E+00  0.000000000000E+00
  0.000000000000E+00  0.000000000000E+00  0.000000000000E+00  0.000000000000E+00  0.000000000000E+00
  0.000000000000E+00  0.000000000000E+00  0.000000000000E+00  0.000000000000E+00  0.000000000000E+00
  0.000000000000E+00
 ae wavefunction
  0.426748799515E-04  0.450221155783E-04  0.474936531710E-04  0.500963341704E-04  0.528373651081E-04
  0.557243377980E-04  0.587652506195E-04  0.619685309520E-04  0.653430588234E-04  0.688981918416E-04
  0.726437914795E-04  0.765902507887E-04  0.807485236218E-04  0.851301554469E-04  0.897473158420E-04
  0.946128327631E-04  0.997402286837E-04  0.105143758709E-03  0.110838450773E-03  0.116840148040E-03
  0.123165553613E-03  0.129832277708E-03  0.136858887392E-03  0.144264959056E-03  0.152071133755E-03
  0.160299175579E-03  0.168972033217E-03  0.178113904892E-03  0.187750306838E-03  0.197908145536E-03
  0.208615793876E-03  0.219903171495E-03  0.231801829485E-03  0.244345039724E-03  0.257567889066E-03
  0.271507378664E-03  0.286202528673E-03  0.301694488650E-03  0.318026653929E-03  0.335244788287E-03
  0.353397153249E-03  0.372534644348E-03  0.392710934735E-03  0.413982626489E-03  0.436409410043E-03
  0.460054232129E-03  0.484983472679E-03  0.511267131135E-03  0.538979022641E-03  0.568196984598E-03
  0.599003094107E-03  0.631483896825E-03  0.665730647785E-03  0.701839564768E-03  0.739912094797E-03
  0.780055194400E-03  0.822381624260E-03  0.867010258911E-03  0.914066412179E-03  0.963682179037E-03
  0.101599679462E-02  0.107115701113E-02  0.112931749335E-02  0.119064123364E-02  0.125529998701E-02
  0.132347472733E-02  0.139535612517E-02  0.147114504838E-02  0.155105308598E-02  0.163530309637E-02
  0.172412978048E-02  0.181778028080E-02  0.191651480700E-02  0.202060728892E-02  0.213034605761E-02
  0.224603455517E-02  0.236799207397E-02  0.249655452585E-02  0.263207524181E-02  0.277492580260E-02
  0.292549690055E-02  0.308419923282E-02  0.325146442618E-02  0.342774599322E-02  0.361352031981E-02
  0.380928768324E-02  0.401557330048E-02  0.423292840570E-02  0.446193135568E-02  0.470318876176E-02
  0.495733664641E-02  0.522504162221E-02  0.550700209056E-02  0.580394945688E-02  0.611664935878E-02
  0.644590290285E-02  0.679254790507E-02  0.715746012949E-02  0.754155451853E-02  0.794578640791E-02
  0.837115271790E-02  0.881869311193E-02  0.928949111226E-02  0.978467516129E-02  0.103054196160E-01
  0.108529456614E-01  0.114285221273E-01  0.120334661919E-01  0.126691439525E-01  0.133369708440E-01
  0.140384118804E-01  0.147749816982E-01  0.155482443704E-01  0.163598129661E-01  0.172113488214E-01
  0.181045604875E-01  0.190412023210E-01  0.200230726742E-01  0.210520116432E-01  0.221298983295E-01
  0.232586475635E-01  0.244402060392E-01  0.256765478039E-01  0.269696690443E-01  0.283215821050E-01
  0.297343086756E-01  0.312098720758E-01  0.327502885666E-01  0.343575576114E-01  0.360336510104E-01
  0.377805008246E-01  0.395999860084E-01  0.414939176648E-01  0.434640228372E-01  0.455119267496E-01
  0.476391334106E-01  0.498470044927E-01  0.521367364056E-01  0.545093354808E-01  0.569655911929E-01
  0.595060473481E-01  0.621309711765E-01  0.648403202792E-01  0.676337073880E-01  0.705103629147E-01
  0.734690952825E-01  0.765082490517E-01  0.796256608792E-01  0.828186133730E-01  0.860837869420E-01
  0.894172097687E-01  0.928142060801E-01  0.962693429299E-01  0.997763757594E-01  0.103328193053E+00
  0.106916760463E+00  0.110533064840E+00  0.114167058662E+00  0.117807605421E+00  0.121442426597E+00
  0.125058050902E+00  0.128639766573E+00  0.132171577554E+00  0.135636164528E+00  0.139014851880E+00
  0.142287581810E+00  0.145432897014E+00  0.148427933473E+00  0.151248425104E+00  0.153868722113E+00
  0.156261824961E+00  0.158399435942E+00  0.160252030290E+00  0.161788948775E+00  0.162978513651E+00
  0.163788169778E+00  0.164184652652E+00  0.164134185007E+00  0.163602703506E+00  0.162556116940E+00
  0.160960597169E+00  0.158782903795E+00  0.155990743271E+00  0.152553162807E+00  0.148440978950E+00
  0.143627240231E+00  0.138087722661E+00  0.131801456150E+00  0.124751279183E+00  0.116924418192E+00
  0.108313087166E+00  0.989151019859E-01  0.887345029280E-01  0.777821776456E-01  0.660764757675E-01
  0.536438050974E-01  0.405191982334E-01  0.267468373141E-01  0.123805235578E-01 -0.251592265703E-02
 -0.178683461616E-01 -0.335920412915E-01 -0.495916516912E-01 -0.657612008763E-01 -0.819842679843E-01
 -0.981343220101E-01 -0.114075226743E+00 -0.129661928076E+00 -0.144741335643E+00 -0.159153411629E+00
 -0.172732480197E+00 -0.185308769719E+00 -0.196710195194E+00 -0.206764378880E+00 -0.215300895710E+00
 -0.222153720800E+00 -0.227163852243E+00 -0.230182080390E+00 -0.231071871381E+00 -0.229712326383E+00
 -0.226001171155E+00 -0.219857724694E+00 -0.211225791463E+00 -0.200076418151E+00 -0.186410452649E+00
 -0.170260839758E+00 -0.151694585551E+00 -0.130814320736E+00 -0.107759393438E+00 -0.827064240379E-01
 -0.558692595414E-01 -0.274982724910E-01  0.212104027704E-02  0.326701908901E-01  0.638005814159E-01
  0.951371260246E-01  0.126282574986E+00  0.156822456150E+00  0.186330504741E+00  0.214374442214E+00
  0.240522034004E+00  0.264347511441E+00  0.285438566799E+00  0.303403974986E+00  0.317881454996E+00
  0.328545161561E+00  0.335112458452E+00  0.337349944203E+00  0.335078763183E+00  0.328179143275E+00
  0.316594024535E+00  0.300331632809E+00  0.279466899109E+00  0.254141692153E+00  0.224563886611E+00
  0.191005322942E+00  0.153798730731E+00  0.113333693985E+00  0.700517396831E-01  0.244406331407E-01
 -0.229720326009E-01 -0.716258600929E-01 -0.120935181467E+00 -0.170296990047E+00 -0.219099144616E+00
 -0.266728709585E+00 -0.312580283373E+00 -0.356064153985E+00 -0.396614108182E+00 -0.433694707808E+00
 -0.466807860431E+00 -0.495498567893E+00 -0.519359852499E+00 -0.538036991949E+00 -0.551231251794E+00
 -0.558703214184E+00 -0.560275609256E+00 -0.555835383663E+00 -0.545334716443E+00 -0.528790795182E+00
 -0.506284308575E+00 -0.477956717466E+00 -0.444006426627E+00 -0.404684005164E+00 -0.360286623026E+00
 -0.311151882983E+00 -0.257651237146E+00 -0.200183176135E+00 -0.139166372403E+00 -0.750329440247E-01
 -0.822198318177E-02  0.608265259988E-01  0.131677303880E+00  0.203904812005E+00  0.277097681239E+00
  0.350862505134E+00  0.424826994669E+00  0.498642509045E+00  0.571985997434E+00  0.644561399684E+00
  0.716100569134E+00  0.786363789791E+00  0.855139969117E+00  0.922246588277E+00  0.987529498162E+00
  0.105086264091E+01  0.111214777670E+01  0.117131428469E+01  0.122831910247E+01  0.128314685163E+01
  0.133581019550E+01  0.138635045224E+01  0.143483848042E+01  0.148137583471E+01  0.152609615770E+01
  0.000000000000E+00  0.000000000000E+00  0.000000000000E+00  0.000000000000E+00  0.000000000000E+00
  0.000000000000E+00  0.000000000000E+00  0.000000000000E+00  0.000000000000E+00  0.000000000000E+00
  0.000000000000E+00  0.000000000000E+00  0.000000000000E+00  0.000000000000E+00  0.000000000000E+00
  0.000000000000E+00  0.000000000000E+00  0.000000000000E+00  0.000000000000E+00  0.000000000000E+00
  0.000000000000E+00  0.000000000000E+00  0.000000000000E+00  0.000000000000E+00  0.000000000000E+00
  0.000000000000E+00
 pseudo wavefunction
  0.796468872537E-08  0.849109410897E-08  0.905229088713E-08  0.965057850660E-08  0.102884083900E-07
  0.109683939806E-07  0.116933214500E-07  0.124661611148E-07  0.132900796071E-07  0.141684528490E-07
  0.151048798856E-07  0.161031976315E-07  0.171674965922E-07  0.183021376243E-07  0.195117698042E-07
  0.208013494767E-07  0.221761605634E-07  0.236418362131E-07  0.252043818826E-07  0.268701999440E-07
  0.286461159174E-07  0.305394064381E-07  0.325578290714E-07  0.347096540990E-07  0.370036984052E-07
  0.394493616033E-07  0.420566645498E-07  0.448362904034E-07  0.477996283987E-07  0.509588205120E-07
  0.543268112119E-07  0.579174004981E-07  0.617453004453E-07  0.658261954848E-07  0.701768066694E-07
  0.748149601865E-07  0.797596603991E-07  0.850311677140E-07  0.906510815972E-07  0.966424290752E-07
  0.103029759086E-06  0.109839243066E-06  0.117098782184E-06  0.124838121666E-06  0.133088972668E-06
  0.141885142218E-06  0.151262671725E-06  0.161259984668E-06  0.171918044021E-06  0.183280520102E-06
  0.195393969505E-06  0.208308025862E-06  0.222075603209E-06  0.236753112801E-06  0.252400694247E-06
  0.269082461927E-06  0.286866767696E-06  0.305826480947E-06  0.326039287189E-06  0.347588006350E-06
  0.370560932131E-06  0.395052193773E-06  0.421162141748E-06  0.448997758932E-06  0.478673098960E-06
  0.510309753544E-06  0.544037350690E-06  0.579994085830E-06  0.618327288068E-06  0.659194023844E-06
  0.702761740503E-06  0.749208952389E-06  0.798725972292E-06  0.851515691239E-06  0.907794409818E-06
  0.967792724447E-06  0.103175647223E-05  0.109994773823E-05  0.117264592937E-05  0.125014891925E-05
  0.133277426867E-05  0.142086052680E-05  0.151476861835E-05  0.161488332244E-05  0.172161484919E-05
  0.183540052050E-05  0.195670656199E-05  0.208603001327E-05  0.222390076450E-05  0.237088372765E-05
  0.252758115111E-05  0.269463508735E-05  0.287273002372E-05  0.306259568707E-05  0.326501003370E-05
  0.348080243704E-05  0.371085708591E-05  0.395611660740E-05  0.421758592926E-05  0.449633639748E-05
  0.479351016607E-05  0.511032487696E-05  0.544807864919E-05  0.580815539790E-05  0.619203050480E-05
  0.660127686352E-05  0.703757132436E-05  0.750270156520E-05  0.799857341633E-05  0.852721866957E-05
  0.909080340341E-05  0.969163685846E-05  0.103321808994E-04  0.110150601027E-04  0.117430725101E-04
  0.125192010944E-04  0.133466259815E-04  0.142287374810E-04  0.151691499784E-04  0.161717167446E-04
  0.172405457248E-04  0.183800163714E-04  0.195947975879E-04  0.208898668610E-04  0.222705306553E-04
  0.237424461571E-04  0.253116444551E-04  0.269845552532E-04  0.287680332166E-04  0.306693860598E-04
  0.326964044906E-04  0.348573941332E-04  0.371612095622E-04  0.396172905854E-04  0.422357009247E-04
  0.450271694547E-04  0.480031341661E-04  0.511757890356E-04  0.545581339941E-04  0.581640281971E-04
  0.620082468169E-04  0.661065415890E-04  0.704757053600E-04  0.751336409031E-04  0.800994342823E-04
  0.853934330656E-04  0.910373297101E-04  0.970542504575E-04  0.103468850107E-03  0.110307413055E-03
  0.117597961011E-03  0.125370367837E-03  0.133656481979E-03  0.142490256992E-03  0.151907890695E-03
  0.161947973525E-03  0.172651646703E-03  0.184062770852E-03  0.196228105768E-03  0.209197502079E-03
  0.223024105573E-03  0.237764575041E-03  0.253479314520E-03  0.270232720904E-03  0.288093447919E-03
  0.307134687560E-03  0.327434470150E-03  0.349075984230E-03  0.372147917617E-03  0.396744821025E-03
  0.422967495729E-03  0.450923406885E-03  0.480727124188E-03  0.512500791690E-03  0.546374628702E-03
  0.582487463839E-03  0.620987304412E-03  0.662031943503E-03  0.705789607217E-03  0.752439644785E-03
  0.802173264345E-03  0.855194317447E-03  0.911720135497E-03  0.971982421596E-03  0.103622820145E-02
  0.110472083725E-02  0.117774110877E-02  0.125558836604E-02  0.133858175842E-02  0.142706154520E-02
  0.152139049297E-02  0.162195536577E-02  0.172916851396E-02  0.184346956853E-02  0.196532724784E-02
  0.209524128423E-02  0.223374447850E-02  0.238140489086E-02  0.253882817729E-02  0.270666008125E-02
  0.288558909080E-02  0.307634927251E-02  0.327972329367E-02  0.349654564563E-02  0.372770608157E-02
  0.397415328309E-02  0.423689877103E-02  0.451702107672E-02  0.481567019129E-02  0.513407231159E-02
  0.547353490267E-02  0.583545209805E-02  0.622131046058E-02  0.663269512796E-02  0.707129636895E-02
  0.753891657789E-02  0.803747773694E-02  0.856902937762E-02  0.913575707527E-02  0.973999151232E-02
  0.103842181486E-01  0.110710875398E-01  0.118034263470E-01  0.125842490853E-01  0.134167706587E-01
  0.143044197365E-01  0.152508530262E-01  0.162599705026E-01  0.173359316574E-01  0.184831728368E-01
  0.197064257388E-01  0.210107371465E-01  0.224014899779E-01  0.238844257376E-01  0.254656684607E-01
  0.271517502423E-01  0.289496384536E-01  0.308667647477E-01  0.329110559629E-01  0.350909670367E-01
  0.374155160463E-01  0.398943214930E-01  0.425376419522E-01  0.453564182093E-01  0.483623180001E-01
  0.515677834737E-01  0.549860814856E-01  0.586313568223E-01  0.625186884430E-01  0.666641488040E-01
  0.710848663070E-01  0.757990908744E-01  0.808262626145E-01  0.861870834779E-01  0.919035917384E-01
  0.979992390390E-01  0.104498969633E+00  0.111429301312E+00  0.118818407349E+00  0.126696198567E+00
  0.135094404409E+00  0.144046651569E+00  0.153588538400E+00  0.163757702856E+00  0.174593881227E+00
  0.186138954303E+00  0.198436976873E+00  0.211534185612E+00  0.225478979395E+00  0.240321864918E+00
  0.256115359128E+00  0.272913838408E+00  0.290773322643E+00  0.309751180264E+00  0.329905738032E+00
  0.351295776727E+00  0.373979891054E+00  0.398015688920E+00  0.423458801846E+00  0.450361674751E+00
  0.478772099613E+00  0.508731453921E+00  0.540272601358E+00  0.573417409158E+00  0.608173834426E+00
  0.644532530660E+00  0.682462926610E+00  0.721908732834E+00  0.762782838050E+00  0.804961568449E+00
  0.848278299938E+00  0.892516437223E+00  0.937401806395E+00  0.982594551028E+00  0.102768067770E+01
  0.107216346703E+01  0.111545505273E+01  0.115686857442E+01  0.119561143136E+01  0.123078030168E+01
  0.126135874345E+01  0.128621835401E+01  0.130412462330E+01  0.131374876279E+01  0.131368690476E+01
  0.130248812224E+01  0.127869268630E+01  0.124088181586E+01  0.118773984140E+01  0.111812915059E+01
  0.103117746312E+01  0.926409693329E+00  0.804072919577E+00  0.664964939596E+00  0.510307530306E+00
  0.000000000000E+00  0.000000000000E+00  0.000000000000E+00  0.000000000000E+00  0.000000000000E+00
  0.000000000000E+00  0.000000000000E+00  0.000000000000E+00  0.000000000000E+00  0.000000000000E+00
  0.000000000000E+00  0.000000000000E+00  0.000000000000E+00  0.000000000000E+00  0.000000000000E+00
  0.000000000000E+00  0.000000000000E+00  0.000000000000E+00  0.000000000000E+00  0.000000000000E+00
  0.000000000000E+00  0.000000000000E+00  0.000000000000E+00  0.000000000000E+00  0.000000000000E+00
  0.000000000000E+00
 ae wavefunction
  0.613295497627E-04  0.647028452063E-04  0.682547793162E-04  0.719951841677E-04  0.759344165206E-04
  0.800833868373E-04  0.844535898693E-04  0.890571368985E-04  0.939067897239E-04  0.990159964910E-04
  0.104398929467E-03  0.110070524868E-03  0.116046524858E-03  0.122343521832E-03  0.128979005112E-03
  0.135971410201E-03  0.143340170715E-03  0.151105773158E-03  0.159289814698E-03  0.167915064091E-03
  0.177005525946E-03  0.186586508511E-03  0.196684695159E-03  0.207328219796E-03  0.218546746390E-03
  0.230371552864E-03  0.242835619566E-03  0.255973722588E-03  0.269822532187E-03  0.284420716578E-03
  0.299809051414E-03  0.316030535218E-03  0.333130511136E-03  0.351156795310E-03  0.370159812245E-03
  0.390192737540E-03  0.411311648375E-03  0.433575682157E-03  0.457047203767E-03  0.481791981859E-03
  0.507879374667E-03  0.535382525851E-03  0.564378570865E-03  0.594948854417E-03  0.627179159579E-03
  0.661159949150E-03  0.696986619884E-03  0.734759770238E-03  0.774585482325E-03  0.816575618759E-03
  0.860848135146E-03  0.907527408981E-03  0.956744585732E-03  0.100863794296E-02  0.106335327333E-02
  0.112104428733E-02  0.118187303678E-02  0.124601035983E-02  0.131363634874E-02  0.138494084108E-02
  0.146012393573E-02  0.153939653451E-02  0.162298091061E-02  0.171111130491E-02  0.180403455131E-02
  0.190201073229E-02  0.200531386565E-02  0.211423262387E-02  0.222907108702E-02  0.235014953054E-02
  0.247780524895E-02  0.261239341673E-02  0.275428798732E-02  0.290388263157E-02  0.306159171646E-02
  0.322785132513E-02  0.340312031927E-02  0.358788144446E-02  0.378264247941E-02  0.398793742953E-02
  0.420432776546E-02  0.443240370668E-02  0.467278555050E-02  0.492612504614E-02  0.519310681372E-02
  0.547444980736E-02  0.577090882161E-02  0.608327603969E-02  0.641238262212E-02  0.675910033318E-02
  0.712434320297E-02  0.750906922145E-02  0.791428206093E-02  0.834103282226E-02  0.879042179955E-02
  0.926360025722E-02  0.976177221236E-02  0.102861962144E-01  0.108381871130E-01  0.114191178030E-01
  0.120304209366E-01  0.126735905873E-01  0.133501838530E-01  0.140618223801E-01  0.148101937920E-01
  0.155970530011E-01  0.164242233816E-01  0.172935977792E-01  0.182071393306E-01  0.191668820628E-01
  0.201749312403E-01  0.212334634234E-01  0.223447262016E-01  0.235110375572E-01  0.247347848152E-01
  0.260184231305E-01  0.273644734582E-01  0.287755199496E-01  0.302542067144E-01  0.318032338798E-01
  0.334253528790E-01  0.351233608918E-01  0.369000943582E-01  0.387584214793E-01  0.407012336168E-01
  0.427314354948E-01  0.448519341065E-01  0.470656262191E-01  0.493753843707E-01  0.517840412450E-01
  0.542943723077E-01  0.569090765858E-01  0.596307554650E-01  0.624618893846E-01  0.654048123013E-01
  0.684616837992E-01  0.716344587222E-01  0.749248542071E-01  0.783343140034E-01  0.818639699686E-01
  0.855146006412E-01  0.892865868003E-01  0.931798639392E-01  0.971938715956E-01  0.101327499502E+00
  0.105579030548E+00  0.109946080572E+00  0.114425535035E+00  0.119013482670E+00  0.123705146251E+00
  0.128494810660E+00  0.133375748505E+00  0.138340143607E+00  0.143379012719E+00  0.148482125955E+00
  0.153637926448E+00  0.158833449882E+00  0.164054244589E+00  0.169284293033E+00  0.174505935575E+00
  0.179699797506E+00  0.184844720471E+00  0.189917699483E+00  0.194893826925E+00  0.199746245082E+00
  0.204446108970E+00  0.208962561482E+00  0.213262723101E+00  0.217311698666E+00  0.221072603864E+00
  0.224506614199E+00  0.227573039292E+00  0.230229425306E+00  0.232431688284E+00  0.234134281111E+00
  0.235290396699E+00  0.235852209928E+00  0.235771160694E+00  0.234998280292E+00  0.233484563170E+00
  0.231181385808E+00  0.228040974189E+00  0.224016920866E+00  0.219064752126E+00  0.213142545120E+00
  0.206211594062E+00  0.198237123747E+00  0.189189047636E+00  0.179042766661E+00  0.167780003637E+00
  0.155389666835E+00  0.141868734825E+00  0.127223153107E+00  0.111468731464E+00  0.946320292819E-01
  0.767512143821E-01  0.578768792651E-01  0.380727970327E-01  0.174165977638E-01 -0.399965521710E-02
 -0.260690108121E-01 -0.486693196974E-01 -0.716630904564E-01 -0.948975343295E-01 -0.118204819451E+00
 -0.141402553823E+00 -0.164294514743E+00 -0.186671641607E+00 -0.208313309480E+00 -0.228988902032E+00
 -0.248459703374E+00 -0.266481126462E+00 -0.282805288794E+00 -0.297183932684E+00 -0.309371670870E+00
 -0.319129524880E+00 -0.326228717603E+00 -0.330454678686E+00 -0.331611216239E+00 -0.329524799308E+00
 -0.324048885572E+00 -0.315068220254E+00 -0.302503025959E+00 -0.286312997973E+00 -0.266501014676E+00
 -0.243116468085E+00 -0.216258115606E+00 -0.186076351733E+00 -0.152774798351E+00 -0.116611115432E+00
 -0.778969407079E-01 -0.369968777602E-01  0.567353336978E-02  0.496509103979E-01  0.944282119293E-01
  0.139460001426E+00  0.184168736480E+00  0.227951962915E+00  0.270190228859E+00  0.310255519956E+00
  0.347520117138E+00  0.381366002113E+00  0.411195111717E+00  0.436440514487E+00  0.456577946844E+00
  0.471136828243E+00  0.479710253424E+00  0.481963918919E+00  0.477644028069E+00  0.466584085207E+00
  0.448710378773E+00  0.424045938515E+00  0.392712819474E+00  0.354932660941E+00  0.311025547019E+00
  0.261407242409E+00  0.206584899143E+00  0.147151338642E+00  0.837780169834E-01  0.172067842795E-01
 -0.517594457240E-01 -0.122266990662E+00 -0.193422520829E+00 -0.264304851721E+00 -0.333977234763E+00
 -0.401499955115E+00 -0.465943028660E+00 -0.526398769894E+00 -0.581993983845E+00 -0.631901516703E+00
 -0.675350921659E+00 -0.711638080298E+00 -0.740133787807E+00 -0.760291493561E+00 -0.771654459078E+00
 -0.773862446660E+00 -0.766657772655E+00 -0.749890310811E+00 -0.723521012068E+00 -0.687623664873E+00
 -0.642384830709E+00 -0.588102042434E+00 -0.525180438785E+00 -0.454128045124E+00 -0.375549938300E+00
 -0.290141548951E+00 -0.198681364757E+00 -0.102023290872E+00 -0.108890605184E-02  0.103140179844E+00
  0.209629703479E+00  0.317299743417E+00  0.425031270905E+00  0.531672245722E+00  0.636043309908E+00
  0.736943183259E+00  0.833153930514E+00  0.923446322347E+00  0.100658557501E+01  0.108133779992E+01
  0.114647754656E+01  0.120079685851E+01  0.124311629337E+01  0.127229836544E+01  0.128726387520E+01
  0.128701155381E+01  0.127064140800E+01  0.123738206504E+01  0.118662230918E+01  0.111794683848E+01
  0.103117608650E+01  0.926409693329E+00  0.804072919577E+00  0.664964939596E+00  0.510307530306E+00
  0.000000000000E+00  0.000000000000E+00  0.000000000000E+00  0.000000000000E+00  0.000000000000E+00
  0.000000000000E+00  0.000000000000E+00  0.000000000000E+00  0.000000000000E+00  0.000000000000E+00
  0.000000000000E+00  0.000000000000E+00  0.000000000000E+00  0.000000000000E+00  0.000000000000E+00
  0.000000000000E+00  0.000000000000E+00  0.000000000000E+00  0.000000000000E+00  0.000000000000E+00
  0.000000000000E+00  0.000000000000E+00  0.000000000000E+00  0.000000000000E+00  0.000000000000E+00
  0.000000000000E+00
 End of Dataset
  PAW_PBE S 06Sep2000                    
   6.00000000000000     
 parameters from PSCTR are:
   VRHFIN =S : s2p4
   LEXCH  = PE
   EATOM  =   276.8230 eV,   20.3459 Ry

   TITEL  = PAW_PBE S 06Sep2000
   LULTRA =        F    use ultrasoft PP ?
   IUNSCR =        1    unscreen: 0-lin 1-nonlin 2-no
   RPACOR =    1.500    partial core radius
   POMASS =   32.066; ZVAL   =    6.000    mass and valenz
   RCORE  =    1.900    outmost cutoff radius
   RWIGS  =    2.200; RWIGS  =    1.164    wigner-seitz radius (au A)
   ENMAX  =  258.689; ENMIN  =  194.016 eV
   ICORE  =        2    local potential
   LCOR   =        T    correct aug charges
   LPAW   =        T    paw PP
   EAUG   =  335.092
   DEXC   =    0.000
   RMAX   =    1.942    core radius for proj-oper
   RAUG   =    1.300    factor for augmentation sphere
   RDEP   =    1.954    radius for radial grids
   RDEPT  =    1.744    core radius for aug-charge
 
   Atomic configuration
    6 entries
     n  l   j            E        occ.
     1  0  0.50     -2405.8406   2.0000
     2  0  0.50      -211.7007   2.0000
     2  1  1.50      -156.4958   6.0000
     3  0  0.50       -17.2562   2.0000
     3  1  0.50        -7.0085   4.0000
     3  2  1.50        -6.8029   0.0000
   Description
     l       E           TYP  RCUT    TYP  RCUT
     0    -17.2561641     23  1.900
     0    -15.8743224     23  1.900
     1     -7.0085400     23  1.900
     1     -2.7779785     23  1.900
     2     -6.8029130     23  1.900
   Error from kinetic energy argument (eV)
   NDATA  =      100
   STEP   =   20.000   1.050
  72.2      68.7      66.9      63.4      61.7      58.3      55.0      53.3
  50.2      47.1      45.6      42.7      39.9      37.2      34.7      32.3
  30.0      27.8      25.8      22.9      21.2      19.6      17.3      15.9
  14.6      12.8      11.3      10.3      9.01      7.85      6.83      5.92
  5.13      4.43      3.82      3.28      2.67      2.28      1.84      1.56
  1.25     0.993     0.784     0.615     0.478     0.369     0.283     0.200
 0.149     0.102     0.687E-01 0.494E-01 0.323E-01 0.209E-01 0.127E-01 0.884E-02
 0.671E-02 0.553E-02 0.514E-02 0.503E-02 0.493E-02 0.472E-02 0.435E-02 0.377E-02
 0.320E-02 0.254E-02 0.195E-02 0.149E-02 0.113E-02 0.946E-03 0.844E-03 0.805E-03
 0.781E-03 0.741E-03 0.665E-03 0.575E-03 0.467E-03 0.373E-03 0.300E-03 0.263E-03
 0.244E-03 0.234E-03 0.219E-03 0.193E-03 0.161E-03 0.131E-03 0.111E-03 0.987E-04
 0.931E-04 0.872E-04 0.769E-04 0.651E-04 0.532E-04 0.466E-04 0.433E-04 0.405E-04
 0.356E-04 0.300E-04 0.251E-04 0.228E-04
END of PSCTR-controll parameters
 local part
   98.2657514061040     
  0.25157640E+02  0.25164091E+02  0.25172622E+02  0.25186821E+02  0.25206654E+02
  0.25232074E+02  0.25263018E+02  0.25299401E+02  0.25341121E+02  0.25388051E+02
  0.25440043E+02  0.25496925E+02  0.25558502E+02  0.25624558E+02  0.25694855E+02
  0.25769136E+02  0.25847124E+02  0.25928527E+02  0.26013035E+02  0.26100324E+02
  0.26190051E+02  0.26281860E+02  0.26375378E+02  0.26470219E+02  0.26565978E+02
  0.26662235E+02  0.26758557E+02  0.26854496E+02  0.26949591E+02  0.27043367E+02
  0.27135341E+02  0.27225019E+02  0.27311902E+02  0.27395479E+02  0.27475240E+02
  0.27550666E+02  0.27621239E+02  0.27686438E+02  0.27745744E+02  0.27798640E+02
  0.27844611E+02  0.27883150E+02  0.27913758E+02  0.27935945E+02  0.27949234E+02
  0.27953160E+02  0.27947278E+02  0.27931156E+02  0.27904385E+02  0.27866578E+02
  0.27817369E+02  0.27756421E+02  0.27683420E+02  0.27598084E+02  0.27500159E+02
  0.27389424E+02  0.27265693E+02  0.27128812E+02  0.26978666E+02  0.26815176E+02
  0.26638300E+02  0.26448037E+02  0.26244425E+02  0.26027542E+02  0.25797505E+02
  0.25554473E+02  0.25298644E+02  0.25030259E+02  0.24749594E+02  0.24456969E+02
  0.24152740E+02  0.23837301E+02  0.23511082E+02  0.23174550E+02  0.22828205E+02
  0.22472578E+02  0.22108230E+02  0.21735753E+02  0.21355762E+02  0.20968899E+02
  0.20575824E+02  0.20177220E+02  0.19773783E+02  0.19366226E+02  0.18955273E+02
  0.18541655E+02  0.18126109E+02  0.17709377E+02  0.17292198E+02  0.16875310E+02
  0.16459445E+02  0.16045325E+02  0.15633662E+02  0.15225153E+02  0.14820479E+02
  0.14420299E+02  0.14025254E+02  0.13635957E+02  0.13252997E+02  0.12876932E+02
  0.12508292E+02  0.12147572E+02  0.11795234E+02  0.11451704E+02  0.11117372E+02
  0.10792588E+02  0.10477664E+02  0.10172873E+02  0.98784452E+01  0.95945735E+01
  0.93214083E+01  0.90590595E+01  0.88075971E+01  0.85670508E+01  0.83374114E+01
  0.81186311E+01  0.79106248E+01  0.77132711E+01  0.75264139E+01  0.73498637E+01
  0.71833995E+01  0.70267703E+01  0.68796973E+01  0.67418758E+01  0.66129774E+01
  0.64926519E+01  0.63805299E+01  0.62762251E+01  0.61793363E+01  0.60894501E+01
  0.60061434E+01  0.59289854E+01  0.58575404E+01  0.57913701E+01  0.57300356E+01
  0.56731002E+01  0.56201313E+01  0.55707022E+01  0.55243951E+01  0.54808018E+01
  0.54395266E+01  0.54001872E+01  0.53624167E+01  0.53258651E+01  0.52902004E+01
  0.52551098E+01  0.52203007E+01  0.51855020E+01  0.51504642E+01  0.51149604E+01
  0.50787866E+01  0.50417616E+01  0.50037278E+01  0.49645507E+01  0.49241186E+01
  0.48823425E+01  0.48391558E+01  0.47945134E+01  0.47483910E+01  0.47007846E+01
  0.46517094E+01  0.46011988E+01  0.45493031E+01  0.44960887E+01  0.44416366E+01
  0.43860412E+01  0.43294088E+01  0.42718562E+01  0.42135096E+01  0.41545028E+01
  0.40949759E+01  0.40350741E+01  0.39749459E+01  0.39147420E+01  0.38546139E+01
  0.37947124E+01  0.37351867E+01  0.36761827E+01  0.36178423E+01  0.35603021E+01
  0.35036925E+01  0.34481366E+01  0.33937495E+01  0.33406379E+01  0.32888986E+01
  0.32386191E+01  0.31898760E+01  0.31427356E+01  0.30972530E+01  0.30534722E+01
  0.30114260E+01  0.29711360E+01  0.29326127E+01  0.28958557E+01  0.28608539E+01
  0.28275859E+01  0.27960207E+01  0.27661178E+01  0.27378278E+01  0.27110933E+01
  0.26858494E+01  0.26620243E+01  0.26395401E+01  0.26183136E+01  0.25982572E+01
  0.25792793E+01  0.25612857E+01  0.25441798E+01  0.25278637E+01  0.25122393E+01
  0.24972083E+01  0.24826740E+01  0.24685409E+01  0.24547163E+01  0.24411105E+01
  0.24276375E+01  0.24142156E+01  0.24007678E+01  0.23872224E+01  0.23735133E+01
  0.23595804E+01  0.23453699E+01  0.23308344E+01  0.23159334E+01  0.23006329E+01
  0.22849061E+01  0.22687327E+01  0.22520994E+01  0.22349994E+01  0.22174325E+01
  0.21994048E+01  0.21809281E+01  0.21620201E+01  0.21427039E+01  0.21230074E+01
  0.21029630E+01  0.20826074E+01  0.20619808E+01  0.20411265E+01  0.20200906E+01
  0.19989213E+01  0.19776685E+01  0.19563829E+01  0.19351163E+01  0.19139203E+01
  0.18928462E+01  0.18719445E+01  0.18512644E+01  0.18308534E+01  0.18107568E+01
  0.17910176E+01  0.17716760E+01  0.17527689E+01  0.17343298E+01  0.17163889E+01
  0.16989723E+01  0.16821020E+01  0.16657963E+01  0.16500690E+01  0.16349297E+01
  0.16203840E+01  0.16064331E+01  0.15930743E+01  0.15803007E+01  0.15681017E+01
  0.15564630E+01  0.15453668E+01  0.15347920E+01  0.15247146E+01  0.15151078E+01
  0.15059423E+01  0.14971869E+01  0.14888082E+01  0.14807716E+01  0.14730413E+01
  0.14655806E+01  0.14583525E+01  0.14513195E+01  0.14444446E+01  0.14376913E+01
  0.14310236E+01  0.14244068E+01  0.14178075E+01  0.14111940E+01  0.14045364E+01
  0.13978068E+01  0.13909796E+01  0.13840318E+01  0.13769427E+01  0.13696945E+01
  0.13622721E+01  0.13546633E+01  0.13468588E+01  0.13388521E+01  0.13306396E+01
  0.13222205E+01  0.13135969E+01  0.13047733E+01  0.12957571E+01  0.12865577E+01
  0.12771873E+01  0.12676597E+01  0.12579909E+01  0.12481986E+01  0.12383020E+01
  0.12283216E+01  0.12182788E+01  0.12081960E+01  0.11980962E+01  0.11880027E+01
  0.11779389E+01  0.11679282E+01  0.11579935E+01  0.11481575E+01  0.11384419E+01
  0.11288675E+01  0.11194540E+01  0.11102199E+01  0.11011822E+01  0.10923563E+01
  0.10837559E+01  0.10753930E+01  0.10672777E+01  0.10594180E+01  0.10518202E+01
  0.10444883E+01  0.10374244E+01  0.10306288E+01  0.10240996E+01  0.10178330E+01
  0.10118235E+01  0.10060636E+01  0.10005445E+01  0.99525539E+00  0.99018432E+00
  0.98531794E+00  0.98064174E+00  0.97614021E+00  0.97179699E+00  0.96759505E+00
  0.96351683E+00  0.95954443E+00  0.95565977E+00  0.95184476E+00  0.94808145E+00
  0.94435221E+00  0.94063986E+00  0.93692785E+00  0.93320035E+00  0.92944243E+00
  0.92564017E+00  0.92178074E+00  0.91785253E+00  0.91384521E+00  0.90974982E+00
  0.90555879E+00  0.90126602E+00  0.89686687E+00  0.89235820E+00  0.88773834E+00
  0.88300711E+00  0.87816575E+00  0.87321693E+00  0.86816464E+00  0.86301419E+00
  0.85777206E+00  0.85244588E+00  0.84704429E+00  0.84157688E+00  0.83605401E+00
  0.83048675E+00  0.82488675E+00  0.81926609E+00  0.81363719E+00  0.80801265E+00
  0.80240517E+00  0.79682736E+00  0.79129170E+00  0.78581034E+00  0.78039506E+00
  0.77505710E+00  0.76980710E+00  0.76465498E+00  0.75960987E+00  0.75468002E+00
  0.74987275E+00  0.74519436E+00  0.74065013E+00  0.73624425E+00  0.73197983E+00
  0.72785883E+00  0.72388212E+00  0.72004945E+00  0.71635947E+00  0.71280977E+00
  0.70939690E+00  0.70611642E+00  0.70296297E+00  0.69993031E+00  0.69701141E+00
  0.69419852E+00  0.69148325E+00  0.68885667E+00  0.68630938E+00  0.68383163E+00
  0.68141341E+00  0.67904452E+00  0.67671469E+00  0.67441369E+00  0.67213138E+00
  0.66985784E+00  0.66758345E+00  0.66529896E+00  0.66299560E+00  0.66066511E+00
  0.65829988E+00  0.65589293E+00  0.65343803E+00  0.65092970E+00  0.64836329E+00
  0.64573496E+00  0.64304175E+00  0.64028155E+00  0.63745314E+00  0.63455616E+00
  0.63159113E+00  0.62855939E+00  0.62546313E+00  0.62230529E+00  0.61908957E+00
  0.61582036E+00  0.61250269E+00  0.60914218E+00  0.60574495E+00  0.60231756E+00
  0.59886697E+00  0.59540042E+00  0.59192540E+00  0.58844952E+00  0.58498050E+00
  0.58152604E+00  0.57809377E+00  0.57469118E+00  0.57132554E+00  0.56800382E+00
  0.56473266E+00  0.56151826E+00  0.55836639E+00  0.55528225E+00  0.55227052E+00
  0.54933527E+00  0.54647992E+00  0.54370725E+00  0.54101938E+00  0.53841771E+00
  0.53590297E+00  0.53347520E+00  0.53113376E+00  0.52887732E+00  0.52670391E+00
  0.52461095E+00  0.52259525E+00  0.52065306E+00  0.51878013E+00  0.51697175E+00
  0.51522278E+00  0.51352772E+00  0.51188078E+00  0.51027593E+00  0.50870692E+00
  0.50716740E+00  0.50565097E+00  0.50415118E+00  0.50266168E+00  0.50117620E+00
  0.49968867E+00  0.49819323E+00  0.49668430E+00  0.49515664E+00  0.49360538E+00
  0.49202606E+00  0.49041470E+00  0.48876776E+00  0.48708224E+00  0.48535566E+00
  0.48358608E+00  0.48177212E+00  0.47991295E+00  0.47800832E+00  0.47605853E+00
  0.47406439E+00  0.47202730E+00  0.46994911E+00  0.46783220E+00  0.46567937E+00
  0.46349387E+00  0.46127930E+00  0.45903963E+00  0.45677910E+00  0.45450222E+00
  0.45221370E+00  0.44991839E+00  0.44762128E+00  0.44532739E+00  0.44304175E+00
  0.44076937E+00  0.43851514E+00  0.43628386E+00  0.43408010E+00  0.43190823E+00
  0.42977236E+00  0.42767627E+00  0.42562345E+00  0.42361697E+00  0.42165955E+00
  0.41975348E+00  0.41790062E+00  0.41610239E+00  0.41435976E+00  0.41267326E+00
  0.41104292E+00  0.40946837E+00  0.40794876E+00  0.40648282E+00  0.40506886E+00
  0.40370480E+00  0.40238819E+00  0.40111623E+00  0.39988581E+00  0.39869355E+00
  0.39753581E+00  0.39640878E+00  0.39530844E+00  0.39423068E+00  0.39317128E+00
  0.39212598E+00  0.39109051E+00  0.39006065E+00  0.38903224E+00  0.38800123E+00
  0.38696373E+00  0.38591604E+00  0.38485467E+00  0.38377638E+00  0.38267823E+00
  0.38155755E+00  0.38041201E+00  0.37923964E+00  0.37803879E+00  0.37680821E+00
  0.37554700E+00  0.37425463E+00  0.37293099E+00  0.37157630E+00  0.37019117E+00
  0.36877657E+00  0.36733381E+00  0.36586451E+00  0.36437062E+00  0.36285438E+00
  0.36131826E+00  0.35976498E+00  0.35819745E+00  0.35661875E+00  0.35503210E+00
  0.35344084E+00  0.35184834E+00  0.35025806E+00  0.34867341E+00  0.34709781E+00
  0.34553461E+00  0.34398705E+00  0.34245825E+00  0.34095118E+00  0.33946862E+00
  0.33801314E+00  0.33658708E+00  0.33519252E+00  0.33383128E+00  0.33250489E+00
  0.33121459E+00  0.32996129E+00  0.32874563E+00  0.32756789E+00  0.32642808E+00
  0.32532586E+00  0.32426062E+00  0.32323141E+00  0.32223704E+00  0.32127602E+00
  0.32034661E+00  0.31944684E+00  0.31857453E+00  0.31772730E+00  0.31690262E+00
  0.31609782E+00  0.31531011E+00  0.31453663E+00  0.31377445E+00  0.31302062E+00
  0.31227220E+00  0.31152626E+00  0.31077994E+00  0.31003046E+00  0.30927516E+00
  0.30851150E+00  0.30773711E+00  0.30694979E+00  0.30614755E+00  0.30532862E+00
  0.30449143E+00  0.30363470E+00  0.30275735E+00  0.30185859E+00  0.30093789E+00
  0.29999498E+00  0.29902985E+00  0.29804277E+00  0.29703425E+00  0.29600507E+00
  0.29495621E+00  0.29388893E+00  0.29280466E+00  0.29170506E+00  0.29059193E+00
  0.28946725E+00  0.28833313E+00  0.28719180E+00  0.28604556E+00  0.28489679E+00
  0.28374792E+00  0.28260139E+00  0.28145963E+00  0.28032505E+00  0.27920001E+00
  0.27808678E+00  0.27698754E+00  0.27590437E+00  0.27483918E+00  0.27379373E+00
  0.27276964E+00  0.27176831E+00  0.27079095E+00  0.26983857E+00  0.26891197E+00
  0.26801170E+00  0.26713813E+00  0.26629136E+00  0.26547130E+00  0.26467762E+00
  0.26390977E+00  0.26316699E+00  0.26244833E+00  0.26175264E+00  0.26107859E+00
  0.26042469E+00  0.25978930E+00  0.25917065E+00  0.25856688E+00  0.25797600E+00
  0.25739598E+00  0.25682473E+00  0.25626012E+00  0.25570002E+00  0.25514231E+00
  0.25458488E+00  0.25402570E+00  0.25346278E+00  0.25289424E+00  0.25231830E+00
  0.25173330E+00  0.25113772E+00  0.25053020E+00  0.24990952E+00  0.24927466E+00
  0.24862475E+00  0.24795914E+00  0.24727735E+00  0.24657909E+00  0.24586429E+00
  0.24513304E+00  0.24438566E+00  0.24362261E+00  0.24284457E+00  0.24205239E+00
  0.24124705E+00  0.24042971E+00  0.23960167E+00  0.23876433E+00  0.23791921E+00
  0.23706793E+00  0.23621217E+00  0.23535367E+00  0.23449423E+00  0.23363564E+00
  0.23277972E+00  0.23192828E+00  0.23108307E+00  0.23024583E+00  0.22941820E+00
  0.22860177E+00  0.22779802E+00  0.22700830E+00  0.22623388E+00  0.22547587E+00
  0.22473523E+00  0.22401278E+00  0.22330918E+00  0.22262493E+00  0.22196035E+00
  0.22131561E+00  0.22069069E+00  0.22008543E+00  0.21949948E+00  0.21893232E+00
  0.21838332E+00  0.21785165E+00  0.21733637E+00  0.21683642E+00  0.21635059E+00
  0.21587760E+00  0.21541606E+00  0.21496451E+00  0.21452144E+00  0.21408527E+00
  0.21365442E+00  0.21322726E+00  0.21280219E+00  0.21237761E+00  0.21195196E+00
  0.21152372E+00  0.21109143E+00  0.21065370E+00  0.21020925E+00  0.20975688E+00
  0.20929550E+00  0.20882415E+00  0.20834200E+00  0.20784833E+00  0.20734261E+00
  0.20682440E+00  0.20629344E+00  0.20574961E+00  0.20519295E+00  0.20462362E+00
  0.20404195E+00  0.20344839E+00  0.20284356E+00  0.20222816E+00  0.20160304E+00
  0.20096916E+00  0.20032758E+00  0.19967942E+00  0.19902591E+00  0.19836834E+00
  0.19770802E+00  0.19704633E+00  0.19638465E+00  0.19572439E+00  0.19506694E+00
  0.19441368E+00  0.19376596E+00  0.19312508E+00  0.19249228E+00  0.19186874E+00
  0.19125556E+00  0.19065374E+00  0.19006419E+00  0.18948770E+00  0.18892495E+00
  0.18837650E+00  0.18784279E+00  0.18732413E+00  0.18682069E+00  0.18633251E+00
  0.18585951E+00  0.18540148E+00  0.18495806E+00  0.18452880E+00  0.18411311E+00
  0.18371029E+00  0.18331956E+00  0.18294001E+00  0.18257067E+00  0.18221048E+00
  0.18185834E+00  0.18151306E+00  0.18117344E+00  0.18083824E+00  0.18050621E+00
  0.18017608E+00  0.17984661E+00  0.17951655E+00  0.17918470E+00  0.17884991E+00
  0.17851106E+00  0.17816712E+00  0.17781712E+00  0.17746016E+00  0.17709547E+00
  0.17672235E+00  0.17634020E+00  0.17594854E+00  0.17554701E+00  0.17513535E+00
  0.17471343E+00  0.17428121E+00  0.17383881E+00  0.17338642E+00  0.17292437E+00
  0.17245310E+00  0.17197313E+00  0.17148509E+00  0.17098972E+00  0.17048781E+00
  0.16998024E+00  0.16946794E+00  0.16895192E+00  0.16843322E+00  0.16791290E+00
  0.16739207E+00  0.16687182E+00  0.16635327E+00  0.16583752E+00  0.16532564E+00
  0.16481869E+00  0.16431766E+00  0.16382352E+00  0.16333717E+00  0.16285942E+00
  0.16239103E+00  0.16193266E+00  0.16148491E+00  0.16104824E+00  0.16062304E+00
  0.16020960E+00  0.15980810E+00  0.15941861E+00  0.15904111E+00  0.15867547E+00
  0.15832144E+00  0.15797870E+00  0.15764683E+00  0.15732529E+00  0.15701350E+00
  0.15671076E+00  0.15641631E+00  0.15612935E+00  0.15584901E+00  0.15557435E+00
  0.15530444E+00  0.15503829E+00  0.15477489E+00  0.15451325E+00  0.15425237E+00
  0.15399124E+00  0.15372890E+00  0.15346440E+00  0.15319685E+00  0.15292540E+00
  0.15264924E+00  0.15236764E+00  0.15207994E+00  0.15178557E+00  0.15148400E+00
  0.15117483E+00  0.15085773E+00  0.15053246E+00  0.15019887E+00  0.14985693E+00
  0.14950667E+00  0.14914823E+00  0.14878185E+00  0.14840782E+00  0.14802657E+00
  0.14763856E+00  0.14724436E+00  0.14684459E+00  0.14643994E+00  0.14603115E+00
  0.14561900E+00  0.14520433E+00  0.14478799E+00  0.14437086E+00  0.14395383E+00
  0.14353780E+00  0.14312365E+00  0.14271227E+00  0.14230452E+00  0.14190121E+00
  0.14150315E+00  0.14111106E+00  0.14072564E+00  0.14034751E+00  0.13997725E+00
  0.13961535E+00  0.13926222E+00  0.13891819E+00  0.13858354E+00  0.13825844E+00
  0.13794297E+00  0.13763714E+00  0.13734087E+00  0.13705400E+00  0.13677628E+00
  0.13650740E+00  0.13624696E+00  0.13599447E+00  0.13574943E+00  0.13551121E+00
  0.13527919E+00  0.13505266E+00  0.13483089E+00  0.13461310E+00  0.13439851E+00
  0.13418631E+00  0.13397568E+00  0.13376579E+00  0.13355584E+00  0.13334504E+00
  0.13313259E+00  0.13291776E+00  0.13269984E+00  0.13247816E+00  0.13225211E+00
  0.13202112E+00  0.13178471E+00  0.13154244E+00  0.13129395E+00  0.13103895E+00
  0.13077722E+00  0.13050862E+00  0.13023309E+00  0.12995066E+00  0.12966140E+00
  0.12936548E+00  0.12906315E+00  0.12875471E+00  0.12844055E+00  0.12812111E+00
  0.12779688E+00  0.12746841E+00  0.12713631E+00  0.12680121E+00  0.12646379E+00
  0.12612476E+00  0.12578482E+00  0.12544472E+00  0.12510519E+00  0.12476698E+00
  0.12443081E+00  0.12409740E+00  0.12376744E+00  0.12344158E+00  0.12312046E+00
  0.12280466E+00  0.12249471E+00  0.12219111E+00  0.12189426E+00  0.12160455E+00
  0.12132226E+00  0.12104763E+00  0.12078083E+00  0.12052195E+00  0.12027102E+00
  0.12002799E+00  0.11979273E+00  0.11956508E+00  0.11934477E+00  0.11913150E+00
  0.11892489E+00  0.11872451E+00  0.11852988E+00  0.11834047E+00  0.11815570E+00
  0.11797499E+00  0.11779768E+00  0.11762313E+00  0.11745066E+00  0.11727959E+00
  0.11710923E+00  0.11693891E+00  0.11676795E+00  0.11659570E+00  0.11642152E+00
  0.11624482E+00  0.11606502E+00  0.11588161E+00  0.11569409E+00  0.11550204E+00
  0.11530508E+00  0.11510289E+00  0.11489521E+00  0.11468183E+00  0.11446264E+00
  0.11423756E+00  0.11400657E+00  0.11376975E+00  0.11352722E+00  0.11327915E+00
 gradient corrections used for XC
           5
 core charge-density (partial)
  0.46517955E+00  0.46502850E+00  0.46457564E+00  0.46382177E+00  0.46276827E+00
  0.46141705E+00  0.45977054E+00  0.45783173E+00  0.45560409E+00  0.45309164E+00
  0.45029887E+00  0.44723076E+00  0.44389278E+00  0.44029082E+00  0.43643124E+00
  0.43232080E+00  0.42796668E+00  0.42337642E+00  0.41855793E+00  0.41351947E+00
  0.40826960E+00  0.40281717E+00  0.39717130E+00  0.39134138E+00  0.38533698E+00
  0.37916788E+00  0.37284405E+00  0.36637556E+00  0.35977263E+00  0.35304556E+00
  0.34620473E+00  0.33926054E+00  0.33222342E+00  0.32510378E+00  0.31791202E+00
  0.31065847E+00  0.30335338E+00  0.29600689E+00  0.28862905E+00  0.28122972E+00
  0.27381864E+00  0.26640534E+00  0.25899917E+00  0.25160923E+00  0.24424442E+00
  0.23691337E+00  0.22962446E+00  0.22238577E+00  0.21520512E+00  0.20809001E+00
  0.20104764E+00  0.19408488E+00  0.18720829E+00  0.18042409E+00  0.17373816E+00
  0.16715603E+00  0.16068291E+00  0.15432364E+00  0.14808272E+00  0.14196430E+00
  0.13597217E+00  0.13010979E+00  0.12438028E+00  0.11878639E+00  0.11333057E+00
  0.10801491E+00  0.10284120E+00  0.97810886E-01  0.92925120E-01  0.88184744E-01
  0.83590304E-01  0.79142061E-01  0.74839999E-01  0.70683834E-01  0.66673024E-01
  0.62806780E-01  0.59084080E-01  0.55503673E-01  0.52064097E-01  0.48763687E-01
  0.45600588E-01  0.42572766E-01  0.39678018E-01  0.36913987E-01  0.34278171E-01
  0.31767938E-01  0.29380532E-01  0.27113089E-01  0.24962648E-01  0.22926158E-01
  0.21000494E-01  0.19182465E-01  0.17468822E-01  0.15856275E-01  0.14341494E-01
  0.12921126E-01  0.11591798E-01  0.10350133E-01  0.91927487E-02  0.81162751E-02
  0.71173561E-02  0.61926591E-02  0.53388815E-02  0.45527570E-02  0.38310619E-02
  0.31706209E-02  0.25683122E-02  0.20210724E-02  0.15259012E-02  0.10798656E-02
  0.68010315E-03  0.32382605E-03  0.83235904E-05 -0.26903495E-03 -0.51079806E-03
 -0.71943009E-03 -0.89730957E-03 -0.10467280E-02 -0.11698888E-02 -0.12689066E-02
 -0.13458071E-02 -0.14025266E-02 -0.14409125E-02 -0.14627232E-02 -0.14696294E-02
 -0.14632144E-02 -0.14449754E-02 -0.14163248E-02 -0.13785916E-02 -0.13330227E-02
 -0.12807852E-02 -0.12229680E-02 -0.11605838E-02 -0.10945713E-02 -0.10257975E-02
 -0.95505984E-03 -0.88308896E-03 -0.81055084E-03 -0.73804947E-03 -0.66612942E-03
 -0.59527843E-03 -0.52593006E-03 -0.45846628E-03 -0.39322015E-03 -0.33047845E-03
 -0.27048430E-03 -0.21343975E-03 -0.15950836E-03 -0.10881772E-03 -0.61461966E-04
 -0.17504176E-04  0.23021206E-04  0.60106059E-04  0.93766327E-04  0.12403982E-03
  0.15098410E-03  0.17467442E-03  0.19520180E-03  0.21267106E-03  0.22719912E-03
  0.23891319E-03  0.24794918E-03  0.25445013E-03  0.25856479E-03  0.26044617E-03
  0.26025031E-03  0.25813507E-03  0.25425898E-03  0.24878021E-03  0.24185565E-03
  0.23364000E-03  0.22428500E-03  0.21393869E-03  0.20274481E-03  0.19084216E-03
  0.17836418E-03  0.16543849E-03  0.15218648E-03  0.13872309E-03  0.12515649E-03
  0.11158794E-03  0.98111604E-04  0.84814537E-04  0.71776586E-04  0.59070418E-04
  0.46761570E-04  0.34908528E-04  0.23562848E-04  0.12769311E-04  0.25660971E-05
 -0.70150012E-05 -0.15948354E-04 -0.24214241E-04 -0.31798586E-04 -0.38692673E-04
 -0.44892850E-04 -0.50400226E-04 -0.55220352E-04 -0.59362908E-04 -0.62841376E-04
 -0.65672718E-04 -0.67877050E-04 -0.69477319E-04 -0.70498989E-04 -0.70969723E-04
 -0.70919078E-04 -0.70378205E-04 -0.69379561E-04 -0.67956627E-04 -0.66143641E-04
 -0.63975339E-04 -0.61486712E-04 -0.58712773E-04 -0.55688341E-04 -0.52447833E-04
 -0.49025081E-04 -0.45453153E-04 -0.41764192E-04 -0.37989271E-04 -0.34158267E-04
 -0.30299737E-04 -0.26440821E-04 -0.22607153E-04 -0.18822788E-04 -0.15110140E-04
 -0.11489937E-04 -0.79811833E-05 -0.46011400E-05 -0.13653115E-05  0.17125530E-05
  0.46204500E-05  0.73481012E-05  0.98869241E-05  0.12229995E-04  0.14372003E-04
  0.16309196E-04  0.18039325E-04  0.19561577E-04  0.20876504E-04  0.21985951E-04
  0.22892975E-04  0.23601768E-04  0.24117568E-04  0.24446578E-04  0.24595874E-04
  0.24573322E-04  0.24387486E-04  0.24047543E-04  0.23563196E-04  0.22944584E-04
  0.22202204E-04  0.21346824E-04  0.20389407E-04  0.19341032E-04  0.18212819E-04
  0.17015864E-04  0.15761165E-04  0.14459565E-04  0.13121689E-04  0.11757891E-04
  0.10378202E-04  0.89922860E-05  0.76093952E-05  0.62383340E-05  0.48874255E-05
  0.35644829E-05  0.22767849E-05  0.10310563E-05 -0.16654870E-06 -0.13104572E-05
 -0.23956861E-05 -0.34178454E-05 -0.43731382E-05 -0.52583579E-05 -0.60708806E-05
 -0.68086557E-05 -0.74701927E-05 -0.80545454E-05 -0.85612940E-05 -0.89905239E-05
 -0.93428039E-05 -0.96191605E-05 -0.98210528E-05 -0.99503439E-05 -0.10009273E-04
 -0.10000423E-04 -0.99266957E-05 -0.97912724E-05 -0.95975891E-05 -0.93493015E-05
 -0.90502544E-05 -0.87044498E-05 -0.83160157E-05 -0.78891762E-05 -0.74282209E-05
 -0.69374766E-05 -0.64212787E-05 -0.58839448E-05 -0.53297488E-05 -0.47628965E-05
 -0.41875031E-05 -0.36075709E-05 -0.30269702E-05 -0.24494205E-05 -0.18784742E-05
 -0.13175011E-05 -0.76967546E-06 -0.23796438E-06  0.27488230E-06  0.76634008E-06
  0.12341164E-05  0.16761554E-05  0.20906416E-05  0.24760010E-05  0.28309019E-05
  0.31542532E-05  0.34452022E-05  0.37031301E-05  0.39276473E-05  0.41185867E-05
  0.42759965E-05  0.44001314E-05  0.44914434E-05  0.45505718E-05  0.45783319E-05
  0.45757034E-05  0.45438188E-05  0.44839502E-05  0.43974966E-05  0.42859709E-05
  0.41509859E-05  0.39942413E-05  0.38175099E-05  0.36226244E-05  0.34114634E-05
  0.31859390E-05  0.29479836E-05  0.26995373E-05  0.24425360E-05  0.21788995E-05
  0.19105207E-05  0.16392548E-05  0.13669093E-05  0.10952349E-05  0.82591641E-06
  0.56056541E-06  0.30071251E-06  0.47801056E-07 -0.19681862E-06 -0.43189424E-06
 -0.65627574E-06 -0.86891880E-06 -0.10688875E-05 -0.12553563E-05 -0.14276114E-05
 -0.15850510E-05 -0.17271855E-05 -0.18536362E-05 -0.19641343E-05 -0.20585186E-05
 -0.21367329E-05 -0.21988227E-05 -0.22449317E-05 -0.22752976E-05 -0.22902473E-05
 -0.22901921E-05 -0.22756227E-05 -0.22471029E-05 -0.22052644E-05 -0.21508005E-05
 -0.20844597E-05 -0.20070395E-05 -0.19193799E-05 -0.18223572E-05 -0.17168768E-05
 -0.16038674E-05 -0.14842745E-05 -0.13590538E-05 -0.12291652E-05 -0.10955669E-05
 -0.95920973E-06 -0.82103131E-06 -0.68195096E-06 -0.54286465E-06 -0.40464027E-06
 -0.26811324E-06 -0.13408247E-06 -0.33066225E-08  0.12349924E-06  0.24566664E-06
  0.36257631E-06  0.47366042E-06  0.57840448E-06  0.67634875E-06  0.76708943E-06
  0.85027936E-06  0.92562840E-06  0.99290347E-06  0.10519282E-05  0.11025824E-05
  0.11448008E-05  0.11785721E-05  0.12039374E-05  0.12209881E-05  0.12298640E-05
  0.12307513E-05  0.12238794E-05  0.12095189E-05  0.11879783E-05  0.11596014E-05
  0.11247636E-05  0.10838692E-05  0.10373480E-05  0.98565162E-06  0.92925058E-06
  0.86863055E-06  0.80428908E-06  0.73673226E-06  0.66647135E-06  0.59401953E-06
  0.51988875E-06  0.44458666E-06  0.36861361E-06  0.29245985E-06  0.21660283E-06
  0.14150469E-06  0.67609829E-07 -0.46572225E-08 -0.74893867E-07 -0.14272125E-06
 -0.20778590E-06 -0.26976114E-06 -0.32834838E-06 -0.38327806E-06 -0.43431056E-06
 -0.48123677E-06 -0.52387855E-06 -0.56208893E-06 -0.59575214E-06 -0.62478350E-06
 -0.64912900E-06 -0.66876487E-06 -0.68369686E-06 -0.69395938E-06 -0.69961457E-06
 -0.70075110E-06 -0.69748297E-06 -0.68994810E-06 -0.67830688E-06 -0.66274056E-06
 -0.64344959E-06 -0.62065193E-06 -0.59458121E-06 -0.56548492E-06 -0.53362255E-06
 -0.49926368E-06 -0.46268606E-06 -0.42417374E-06 -0.38401518E-06 -0.34250137E-06
 -0.29992397E-06 -0.25657359E-06 -0.21273801E-06 -0.16870049E-06 -0.12473821E-06
 -0.81120740E-07 -0.38108570E-07  0.40482071E-08  0.45111154E-07  0.84854635E-07
  0.12306686E-06  0.15955080E-06  0.19412504E-06  0.22662444E-06  0.25690074E-06
  0.28482303E-06  0.31027814E-06  0.33317080E-06  0.35342382E-06  0.37097813E-06
  0.38579260E-06  0.39784392E-06  0.40712623E-06  0.41365080E-06  0.41744543E-06
  0.41855398E-06  0.41703562E-06  0.41296414E-06  0.40642712E-06  0.39752507E-06
  0.38637050E-06  0.37308693E-06  0.35780790E-06  0.34067587E-06  0.32184120E-06
  0.30146099E-06  0.27969799E-06  0.25671946E-06  0.23269608E-06  0.20780080E-06
  0.18220773E-06  0.15609110E-06  0.12962416E-06  0.10297816E-06  0.76321377E-07
  0.49818150E-07  0.23627982E-07 -0.20953147E-08 -0.27204412E-07 -0.51559208E-07
 -0.75027508E-07 -0.97485635E-07 -0.11881898E-06 -0.13892249E-06 -0.15770108E-06
 -0.17506996E-06 -0.19095492E-06 -0.20529257E-06 -0.21803038E-06 -0.22912686E-06
 -0.23855147E-06 -0.24628458E-06 -0.25231735E-06 -0.25665153E-06 -0.25929918E-06
 -0.26028241E-06 -0.25963295E-06 -0.25739181E-06 -0.25360876E-06 -0.24834187E-06
 -0.24165694E-06 -0.23362695E-06 -0.22433143E-06 -0.21385586E-06 -0.20229099E-06
 -0.18973219E-06 -0.17627875E-06 -0.16203322E-06 -0.14710067E-06 -0.13158806E-06
 -0.11560347E-06 -0.99255497E-07 -0.82652541E-07 -0.65902160E-07 -0.49110443E-07
 -0.32381394E-07 -0.15816351E-07  0.48657199E-09  0.16433006E-07  0.31932820E-07
  0.46900571E-07  0.61255925E-07  0.74924024E-07  0.87835830E-07  0.99928410E-07
  0.11114519E-06  0.12143615E-06  0.13075800E-06  0.13907430E-06  0.14635549E-06
  0.15257900E-06  0.15772917E-06  0.16179720E-06  0.16478111E-06  0.16668555E-06
  0.16752166E-06  0.16730686E-06  0.16606461E-06  0.16382412E-06  0.16062009E-06
  0.15649237E-06  0.15148558E-06  0.14564877E-06  0.13903504E-06  0.13170109E-06
  0.12370686E-06  0.11511503E-06  0.10599065E-06  0.96400641E-07  0.86413401E-07
  0.76098318E-07  0.65525351E-07  0.54764588E-07  0.43885821E-07  0.32958127E-07
  0.22049467E-07  0.11226295E-07  0.55318398E-09 -0.99075204E-08 -0.20096038E-07
 -0.29955461E-07 -0.39432042E-07 -0.48475453E-07 -0.57039026E-07 -0.65079954E-07
 -0.72559479E-07 -0.79443042E-07 -0.85700410E-07 -0.91305769E-07 -0.96237793E-07
 -0.10047969E-06 -0.10401919E-06 -0.10684856E-06 -0.10896455E-06 -0.11036831E-06
 -0.11106531E-06 -0.11106520E-06 -0.11038172E-06 -0.10903246E-06 -0.10703875E-06
 -0.10442542E-06 -0.10122056E-06 -0.97455353E-07 -0.93163750E-07 -0.88382263E-07
 -0.83149670E-07 -0.77506741E-07 -0.71495955E-07 -0.65161203E-07 -0.58547502E-07
 -0.51700695E-07 -0.44667161E-07 -0.37493520E-07 -0.30226350E-07 -0.22911903E-07
 -0.15595831E-07 -0.83229227E-08 -0.11368477E-08  0.59200869E-08  0.12807166E-07
  0.19485483E-07  0.25918142E-07  0.32070441E-07  0.37910043E-07  0.43407124E-07
  0.48534509E-07  0.53267785E-07  0.57585397E-07  0.61468725E-07  0.64902142E-07
  0.67873050E-07  0.70371905E-07  0.72392209E-07  0.73930503E-07  0.74986321E-07
  0.75562145E-07  0.75663331E-07  0.75298024E-07  0.74477057E-07  0.73213836E-07
  0.71524211E-07  0.69426334E-07  0.66940510E-07  0.64089028E-07  0.60895998E-07
  0.57387163E-07  0.53589721E-07  0.49532125E-07  0.45243898E-07  0.40755425E-07
  0.36097761E-07  0.31302425E-07  0.26401203E-07  0.21425953E-07  0.16408405E-07
  0.11379978E-07  0.63715888E-08  0.14134790E-08 -0.34649592E-08 -0.82353443E-08
 -0.12870460E-07 -0.17344399E-07 -0.21632696E-07 -0.25712450E-07 -0.29562438E-07
 -0.33163208E-07 -0.36497171E-07 -0.39548672E-07 -0.42304050E-07 -0.44751687E-07
 -0.46882039E-07 -0.48687663E-07 -0.50163220E-07 -0.51305472E-07 -0.52113266E-07
 -0.52587502E-07 -0.52731093E-07 -0.52548913E-07 -0.52047730E-07 -0.51236138E-07
 -0.50124465E-07 -0.48724689E-07 -0.47050329E-07 -0.45116343E-07 -0.42939007E-07
 -0.40535798E-07 -0.37925264E-07 -0.35126897E-07 -0.32160994E-07 -0.29048525E-07
 -0.25810991E-07 -0.22470286E-07 -0.19048558E-07 -0.15568070E-07 -0.12051063E-07
 -0.85196236E-08 -0.49955493E-08 -0.15002246E-08  0.19455030E-08  0.53214398E-08
  0.86081572E-08  0.11787096E-07  0.14840665E-07  0.17752332E-07  0.20506701E-07
  0.23089595E-07  0.25488113E-07  0.27690692E-07  0.29687154E-07  0.31468741E-07
  0.33028149E-07  0.34359546E-07  0.35458581E-07  0.36322389E-07  0.36949582E-07
  0.37340234E-07  0.37495853E-07  0.37419354E-07  0.37115013E-07  0.36588421E-07
  0.35846428E-07  0.34897081E-07  0.33749555E-07  0.32414082E-07  0.30901867E-07
  0.29225007E-07  0.27396403E-07  0.25429668E-07  0.23339034E-07  0.21139257E-07
  0.18845514E-07  0.16473310E-07  0.14038377E-07  0.11556572E-07  0.90437833E-08
  0.65158328E-08  0.39883789E-08  0.14768264E-08 -0.10037630E-08 -0.34387570E-08
 -0.58140339E-08 -0.81160602E-08 -0.10331963E-07 -0.12449598E-07 -0.14457610E-07
 -0.16345492E-07 -0.18103630E-07 -0.19723355E-07 -0.21196972E-07 -0.22517799E-07
 -0.23680183E-07 -0.24679528E-07 -0.25512296E-07 -0.26176021E-07 -0.26669300E-07
 -0.26991788E-07 -0.27144185E-07 -0.27128210E-07 -0.26946581E-07 -0.26602980E-07
 -0.26102014E-07 -0.25449177E-07 -0.24650798E-07 -0.23713994E-07 -0.22646612E-07
 -0.21457170E-07 -0.20154799E-07 -0.18749173E-07 -0.17250445E-07 -0.15669177E-07
 -0.14016270E-07 -0.12302896E-07 -0.10540418E-07 -0.87403291E-08 -0.69141708E-08
 -0.50734693E-08 -0.32296626E-08 -0.13940338E-08  0.42235539E-09  0.22087278E-08
  0.39546524E-08  0.56501014E-08  0.72855055E-08  0.88518048E-08  0.10340496E-07
  0.11743674E-07  0.13054074E-07  0.14265103E-07  0.15370870E-07  0.16366214E-07
  0.17246718E-07  0.18008733E-07  0.18649381E-07  0.19166566E-07  0.19558972E-07
  0.19826060E-07  0.19968063E-07  0.19985967E-07  0.19881498E-07  0.19657102E-07
  0.19315914E-07  0.18861733E-07  0.18298990E-07  0.17632709E-07  0.16868467E-07
  0.16012358E-07  0.15070940E-07  0.14051196E-07  0.12960482E-07  0.11806476E-07
  0.10597131E-07  0.93406175E-08  0.80452740E-08  0.67195540E-08  0.53719724E-08
  0.40110531E-08  0.26452776E-08  0.12830339E-08 -0.67432710E-10 -0.13980676E-08
 -0.27010528E-08 -0.39688509E-08 -0.51942468E-08 -0.63703865E-08 -0.74908136E-08
 -0.85495026E-08 -0.95408893E-08 -0.10459898E-07 -0.11301964E-07 -0.12063057E-07
 -0.12739694E-07 -0.13328956E-07 -0.13828494E-07 -0.14236539E-07 -0.14551902E-07
 -0.14773975E-07 -0.14902722E-07 -0.14938677E-07 -0.14882929E-07 -0.14737108E-07
 -0.14503369E-07 -0.14184370E-07 -0.13783248E-07 -0.13303598E-07 -0.12749437E-07
 -0.12125181E-07 -0.11435611E-07 -0.10685833E-07 -0.98812529E-08 -0.90275300E-08
 -0.81305447E-08 -0.71963582E-08 -0.62311732E-08 -0.52412946E-08 -0.42330898E-08
 -0.32129494E-08 -0.21872478E-08 -0.11623055E-08 -0.14435099E-09  0.86051560E-09
  0.18463574E-08  0.28074349E-08  0.37382374E-08  0.46335140E-08  0.54883013E-08
  0.62979495E-08  0.70581466E-08  0.77649397E-08  0.84147540E-08  0.90044093E-08
  0.95311339E-08  0.99925759E-08  0.10386812E-07  0.10712352E-07  0.10968143E-07
  0.11153572E-07  0.11268459E-07  0.11313055E-07  0.11288036E-07  0.11194489E-07
  0.11033904E-07  0.10808158E-07  0.10519498E-07  0.10170523E-07  0.97641630E-08
  0.93036569E-08  0.87925296E-08  0.82345661E-08  0.76337851E-08  0.69944119E-08
  0.63208497E-08  0.56176506E-08  0.48894863E-08  0.41411182E-08  0.33773671E-08
  0.26030834E-08  0.18231173E-08  0.10422896E-08  0.26536259E-09 -0.50298778E-09
 -0.12581992E-08 -0.19958490E-08 -0.27116794E-08 -0.34016207E-08 -0.40618137E-08
 -0.46886304E-08 -0.52786928E-08 -0.58288900E-08 -0.63363937E-08 -0.67986718E-08
 -0.72134994E-08 -0.75789687E-08 -0.78934962E-08 -0.81558283E-08 -0.83650442E-08
 -0.85205578E-08 -0.86221162E-08 -0.86697974E-08 -0.86640054E-08 -0.86054635E-08
 -0.84952061E-08 -0.83345678E-08 -0.81251721E-08 -0.78689177E-08 -0.75679630E-08
 -0.72247103E-08 -0.68417880E-08 -0.64220314E-08 -0.59684634E-08 -0.54842735E-08
 -0.49727962E-08 -0.44374896E-08 -0.38819122E-08 -0.33097002E-08 -0.27245451E-08
 -0.21301696E-08 -0.15303057E-08 -0.92867120E-09 -0.32894793E-09  0.26524051E-09
  0.85034972E-09  0.14229351E-08  0.19796713E-08  0.25173710E-08  0.30330024E-08
  0.35237057E-08  0.39868082E-08  0.44198382E-08  0.48205372E-08  0.51868714E-08
  0.55170408E-08  0.58094872E-08  0.60629009E-08  0.62762253E-08  0.64486604E-08
  0.65796639E-08  0.66689521E-08  0.67164976E-08  0.67225269E-08  0.66875156E-08
  0.66121824E-08  0.64974820E-08  0.63445962E-08  0.61549238E-08  0.59300699E-08
  0.56718334E-08  0.53821934E-08  0.50632956E-08  0.47174369E-08  0.43470498E-08
  0.39546858E-08  0.35429986E-08  0.31147269E-08  0.26726767E-08  0.22197033E-08
  0.17586938E-08  0.12925489E-08  0.82416512E-09  0.35641768E-09 -0.10785699E-09
 -0.56587781E-09 -0.10149353E-08 -0.14524070E-08 -0.18757725E-08 -0.22826272E-08
 -0.26706958E-08 -0.30378443E-08 -0.33820912E-08 -0.37016178E-08 -0.39947773E-08
 kinetic energy density (partial)
  0.10508984E+03  0.10505593E+03  0.10495428E+03  0.10478505E+03  0.10454857E+03
  0.10424525E+03  0.10387563E+03  0.10344038E+03  0.10294027E+03  0.10237619E+03
  0.10174915E+03  0.10106026E+03  0.10031072E+03  0.99501863E+02  0.98635092E+02
  0.97711918E+02  0.96733937E+02  0.95702832E+02  0.94620366E+02  0.93488377E+02
  0.92308776E+02  0.91083536E+02  0.89814693E+02  0.88504338E+02  0.87154609E+02
  0.85767691E+02  0.84345805E+02  0.82891206E+02  0.81406175E+02  0.79893015E+02
  0.78354043E+02  0.76791588E+02  0.75207984E+02  0.73605562E+02  0.71986648E+02
  0.70353555E+02  0.68708582E+02  0.67054005E+02  0.65392072E+02  0.63725002E+02
  0.62054978E+02  0.60384143E+02  0.58714595E+02  0.57048386E+02  0.55387514E+02
  0.53733925E+02  0.52089504E+02  0.50456078E+02  0.48835406E+02  0.47229185E+02
  0.45639040E+02  0.44066527E+02  0.42513129E+02  0.40980257E+02  0.39469243E+02
  0.37981348E+02  0.36517750E+02  0.35079555E+02  0.33667788E+02  0.32283397E+02
  0.30927252E+02  0.29600144E+02  0.28302790E+02  0.27035829E+02  0.25799823E+02
  0.24595262E+02  0.23422563E+02  0.22282069E+02  0.21174055E+02  0.20098727E+02
  0.19056223E+02  0.18046619E+02  0.17069925E+02  0.16126093E+02  0.15215016E+02
  0.14336530E+02  0.13490420E+02  0.12676417E+02  0.11894206E+02  0.11143423E+02
  0.10423663E+02  0.97344785E+01  0.90753851E+01  0.84458616E+01  0.78453542E+01
  0.72732783E+01  0.67290218E+01  0.62119470E+01  0.57213934E+01  0.52566801E+01
  0.48171085E+01  0.44019644E+01  0.40105204E+01  0.36420382E+01  0.32957708E+01
  0.29709647E+01  0.26668620E+01  0.23827020E+01  0.21177239E+01  0.18711678E+01
  0.16422769E+01  0.14302992E+01  0.12344887E+01  0.10541074E+01  0.88842630E+00
  0.73672697E+00  0.59830257E+00  0.47245913E+00  0.35851654E+00  0.25580951E+00
  0.16368850E+00  0.81520415E-01  0.86893982E-02 -0.55402593E-01 -0.11133523E+00
 -0.15966935E+00 -0.20094656E+00 -0.23568894E+00 -0.26439877E+00 -0.28755837E+00
 -0.30563000E+00 -0.31905579E+00 -0.32825778E+00 -0.33363795E+00 -0.33557840E+00
 -0.33444146E+00 -0.33056998E+00 -0.32428755E+00 -0.31589883E+00 -0.30568992E+00
 -0.29392868E+00 -0.28086524E+00 -0.26673238E+00 -0.25174602E+00 -0.23610573E+00
 -0.21999525E+00 -0.20358304E+00 -0.18702280E+00 -0.17045406E+00 -0.15400276E+00
 -0.13778185E+00 -0.12189184E+00 -0.10642144E+00 -0.91448126E-01 -0.77038769E-01
 -0.63250197E-01 -0.50129801E-01 -0.37716117E-01 -0.26039401E-01 -0.15122195E-01
 -0.49798849E-02  0.43787594E-02  0.12951049E-01  0.20739864E-01  0.27753145E-01
  0.34003419E-01  0.39507318E-01  0.44285141E-01  0.48360410E-01  0.51759464E-01
  0.54511060E-01  0.56645996E-01  0.58196757E-01  0.59197178E-01  0.59682125E-01
  0.59687196E-01  0.59248448E-01  0.58402130E-01  0.57184451E-01  0.55631356E-01
  0.53778321E-01  0.51660172E-01  0.49310917E-01  0.46763596E-01  0.44050149E-01
  0.41201299E-01  0.38246451E-01  0.35213605E-01  0.32129285E-01  0.29018479E-01
  0.25904596E-01  0.22809433E-01  0.19753149E-01  0.16754261E-01  0.13829640E-01
  0.10994521E-01  0.82625182E-02  0.56456572E-02  0.31544033E-02  0.79770374E-03
 -0.14169662E-02 -0.34835515E-02 -0.53973606E-02 -0.71550052E-02 -0.87543351E-02
 -0.10194372E-01 -0.11475239E-01 -0.12598088E-01 -0.13565031E-01 -0.14379059E-01
 -0.15043974E-01 -0.15564313E-01 -0.15945271E-01 -0.16192630E-01 -0.16312690E-01
 -0.16312191E-01 -0.16198252E-01 -0.15978297E-01 -0.15659997E-01 -0.15251202E-01
 -0.14759887E-01 -0.14194088E-01 -0.13561858E-01 -0.12871207E-01 -0.12130064E-01
 -0.11346223E-01 -0.10527310E-01 -0.96807427E-02 -0.88136977E-02 -0.79330779E-02
 -0.70454874E-02 -0.61572065E-02 -0.52741716E-02 -0.44019576E-02 -0.35457634E-02
 -0.27104010E-02 -0.19002871E-02 -0.11194371E-02 -0.37146271E-03  0.34042872E-03
  0.10134319E-02  0.16451394E-02  0.22335350E-02  0.27769856E-02  0.32742306E-02
  0.37243701E-02  0.41268516E-02  0.44814550E-02  0.47882767E-02  0.50477129E-02
  0.52604411E-02  0.54274018E-02  0.55497793E-02  0.56289818E-02  0.56666215E-02
  0.56644943E-02  0.56245593E-02  0.55489190E-02  0.54397989E-02  0.52995278E-02
  0.51305183E-02  0.49352479E-02  0.47162404E-02  0.44760485E-02  0.42172363E-02
  0.39423630E-02  0.36539678E-02  0.33545547E-02  0.30465793E-02  0.27324356E-02
  0.24144445E-02  0.20948426E-02  0.17757730E-02  0.14592761E-02  0.11472817E-02
  0.84160279E-03  0.54392951E-03  0.25582439E-03 -0.21281256E-04 -0.28609018E-03
 -0.53744106E-03 -0.77430944E-03 -0.99580787E-03 -0.12011852E-02 -0.13898249E-02
 -0.15612432E-02 -0.17150858E-02 -0.18511244E-02 -0.19692528E-02 -0.20694816E-02
 -0.21519338E-02 -0.22168384E-02 -0.22645249E-02 -0.22954166E-02 -0.23100242E-02
 -0.23089387E-02 -0.22928247E-02 -0.22624125E-02 -0.22184917E-02 -0.21619031E-02
 -0.20935320E-02 -0.20143003E-02 -0.19251599E-02 -0.18270851E-02 -0.17210662E-02
 -0.16081023E-02 -0.14891953E-02 -0.13653431E-02 -0.12375341E-02 -0.11067415E-02
 -0.97391775E-03 -0.83998959E-03 -0.70585362E-03 -0.57237186E-03 -0.44036793E-03
 -0.31062353E-03 -0.18387534E-03 -0.60812298E-04  0.57926723E-04  0.17175483E-03
  0.28013868E-03  0.38259959E-03  0.47871440E-03  0.56811581E-03  0.65049254E-03
  0.72558899E-03  0.79320472E-03  0.85319350E-03  0.90546216E-03  0.94996911E-03
  0.98672263E-03  0.10157790E-02  0.10372401E-02  0.10512516E-02  0.10579996E-02
  0.10577088E-02  0.10506392E-02  0.10370834E-02  0.10173635E-02  0.99182801E-03
  0.96084889E-03  0.92481834E-03  0.88414566E-03  0.83925413E-03  0.79057791E-03
  0.73855905E-03  0.68364442E-03  0.62628288E-03  0.56692244E-03  0.50600754E-03
  0.44397651E-03  0.38125909E-03  0.31827410E-03  0.25542731E-03  0.19310937E-03
  0.13169402E-03  0.71536368E-04  0.12971385E-04 -0.43687433E-04 -0.98149230E-04
 -0.15014678E-03 -0.19943729E-03 -0.24580304E-03 -0.28905188E-03 -0.32901746E-03
 -0.36555943E-03 -0.39856334E-03 -0.42794053E-03 -0.45362775E-03 -0.47558668E-03
 -0.49380337E-03 -0.50828745E-03 -0.51907131E-03 -0.52620916E-03 -0.52977593E-03
 -0.52986617E-03 -0.52659278E-03 -0.52008574E-03 -0.51049076E-03 -0.49796788E-03
 -0.48268998E-03 -0.46484139E-03 -0.44461629E-03 -0.42221731E-03 -0.39785396E-03
 -0.37174113E-03 -0.34409766E-03 -0.31514483E-03 -0.28510493E-03 -0.25419994E-03
 -0.22265011E-03 -0.19067271E-03 -0.15848082E-03 -0.12628213E-03 -0.94277865E-04
 -0.62661763E-04 -0.31619123E-04 -0.13259507E-05  0.28051831E-04  0.56359072E-04
  0.83452009E-04  0.10919878E-03  0.13347988E-03  0.15618847E-03  0.17723068E-03
  0.19652576E-03  0.21400616E-03  0.22961756E-03  0.24331881E-03  0.25508173E-03
  0.26489095E-03  0.27274356E-03  0.27864880E-03  0.28262762E-03  0.28471218E-03
  0.28494538E-03  0.28338021E-03  0.28007916E-03  0.27511358E-03  0.26856293E-03
  0.26051412E-03  0.25106071E-03  0.24030218E-03  0.22834313E-03  0.21529251E-03
  0.20126283E-03  0.18636934E-03  0.17072933E-03  0.15446125E-03  0.13768404E-03
  0.12051636E-03  0.10307589E-03  0.85478616E-04  0.67838210E-04  0.50265375E-04
  0.32867272E-04  0.15746965E-04 -0.99708769E-06 -0.17271505E-04 -0.32988406E-04
 -0.48065788E-04 -0.62427862E-04 -0.76005339E-04 -0.88735671E-04 -0.10056324E-03
 -0.11143951E-03 -0.12132312E-03 -0.13017993E-03 -0.13798305E-03 -0.14471279E-03
 -0.15035659E-03 -0.15490887E-03 -0.15837093E-03 -0.16075071E-03 -0.16206257E-03
 -0.16232704E-03 -0.16157051E-03 -0.15982495E-03 -0.15712751E-03 -0.15352020E-03
 -0.14904948E-03 -0.14376587E-03 -0.13772353E-03 -0.13097984E-03 -0.12359497E-03
 -0.11563140E-03 -0.10715356E-03 -0.98227292E-04 -0.88919494E-04 -0.79297635E-04
 -0.69429353E-04 -0.59382034E-04 -0.49222410E-04 -0.39016167E-04 -0.28827582E-04
 -0.18719162E-04 -0.87513101E-05  0.10179808E-05  0.10533424E-04  0.19742702E-04
  0.28596709E-04  0.37049768E-04  0.45059817E-04  0.52588576E-04  0.59601680E-04
  0.66068793E-04  0.71963683E-04  0.77264284E-04  0.81952721E-04  0.86015317E-04
  0.89442566E-04  0.92229087E-04  0.94373557E-04  0.95878616E-04  0.96750749E-04
  0.97000157E-04  0.96640598E-04  0.95689217E-04  0.94166361E-04  0.92095373E-04
  0.89502376E-04  0.86416051E-04  0.82867397E-04  0.78889485E-04  0.74517211E-04
  0.69787035E-04  0.64736725E-04  0.59405096E-04  0.53831748E-04  0.48056805E-04
  0.42120663E-04  0.36063736E-04  0.29926211E-04  0.23747809E-04  0.17567554E-04
  0.11423555E-04  0.53527978E-05 -0.60905799E-06 -0.64278589E-05 -0.12071131E-04
 -0.17508238E-04 -0.22710523E-04 -0.27651434E-04 -0.32306639E-04 -0.36654121E-04
 -0.40674254E-04 -0.44349871E-04 -0.47666306E-04 -0.50611432E-04 -0.53175666E-04
 -0.55351976E-04 -0.57135862E-04 -0.58525324E-04 -0.59520820E-04 -0.60125201E-04
 -0.60343645E-04 -0.60183567E-04 -0.59654528E-04 -0.58768124E-04 -0.57537871E-04
 -0.55979079E-04 -0.54108720E-04 -0.51945285E-04 -0.49508640E-04 -0.46819871E-04
 -0.43901134E-04 -0.40775492E-04 -0.37466755E-04 -0.33999324E-04 -0.30398021E-04
 -0.26687939E-04 -0.22894276E-04 -0.19042183E-04 -0.15156613E-04 -0.11262174E-04
 -0.73829846E-05 -0.35425422E-05  0.23640778E-06  0.39319931E-05  0.75233280E-05
  0.10990618E-04  0.14315258E-04  0.17479915E-04  0.20468611E-04  0.23266785E-04
  0.25861356E-04  0.28240764E-04  0.30395016E-04  0.32315701E-04  0.33996020E-04
  0.35430782E-04  0.36616406E-04  0.37550909E-04  0.38233880E-04  0.38666453E-04
  0.38851264E-04  0.38792408E-04  0.38495375E-04  0.37966996E-04  0.37215366E-04
  0.36249775E-04  0.35080620E-04  0.33719324E-04  0.32178241E-04  0.30470564E-04
  0.28610228E-04  0.26611809E-04  0.24490420E-04  0.22261613E-04  0.19941272E-04
  0.17545511E-04  0.15090571E-04  0.12592720E-04  0.10068154E-04  0.75328964E-05
  0.50027108E-05  0.24930056E-05  0.18750366E-07 -0.24056070E-05 -0.47662166E-05
 -0.70498987E-05 -0.92442096E-05 -0.11337503E-04 -0.13318982E-04 -0.15178752E-04
 -0.16907857E-04 -0.18498320E-04 -0.19943166E-04 -0.21236451E-04 -0.22373270E-04
 -0.23349773E-04 -0.24163163E-04 -0.24811690E-04 -0.25294647E-04 -0.25612349E-04
 -0.25766112E-04 -0.25758223E-04 -0.25591911E-04 -0.25271308E-04 -0.24801401E-04
 -0.24187992E-04 -0.23437642E-04 -0.22557619E-04 -0.21555838E-04 -0.20440801E-04
 -0.19221537E-04 -0.17907532E-04 -0.16508664E-04 -0.15035140E-04 -0.13497421E-04
 -0.11906157E-04 -0.10272122E-04 -0.86061390E-05 -0.69190196E-05 -0.52214959E-05
 -0.35241578E-05 -0.18373912E-05 -0.17131912E-06  0.14642545E-05  0.30598985E-05
  0.46066040E-05  0.60958315E-05  0.75195535E-05  0.88702933E-05  0.10141160E-04
  0.11325879E-04  0.12418820E-04  0.13415015E-04  0.14310180E-04  0.15100726E-04
  0.15783770E-04  0.16357135E-04  0.16819354E-04  0.17169664E-04  0.17407998E-04
  0.17534970E-04  0.17551863E-04  0.17460606E-04  0.17263750E-04  0.16964443E-04
  0.16566397E-04  0.16073859E-04  0.15491571E-04  0.14824737E-04  0.14078977E-04
  0.13260293E-04  0.12375017E-04  0.11429773E-04  0.10431430E-04  0.93870550E-05
  0.83038657E-05  0.71891864E-05  0.60504002E-05  0.48949036E-05  0.37300613E-05
  0.25631622E-05  0.14013766E-05  0.25171483E-06 -0.87901220E-06 -0.19842309E-05
 -0.30576404E-05 -0.40932460E-05 -0.50853900E-05 -0.60287798E-05 -0.69185136E-05
 -0.77501032E-05 -0.85194939E-05 -0.92230812E-05 -0.98577246E-05 -0.10420759E-04
 -0.10910001E-04 -0.11323756E-04 -0.11660818E-04 -0.11920468E-04 -0.12102472E-04
 -0.12207071E-04 -0.12234976E-04 -0.12187347E-04 -0.12065789E-04 -0.11872325E-04
 -0.11609382E-04 -0.11279767E-04 -0.10886645E-04 -0.10433511E-04 -0.99241677E-05
 -0.93626912E-05 -0.87534060E-05 -0.81008532E-05 -0.74097588E-05 -0.66850026E-05
 -0.59315854E-05 -0.51545971E-05 -0.43591841E-05 -0.35505171E-05 -0.27337596E-05
 -0.19140363E-05 -0.10964034E-05 -0.28581823E-06  0.51288822E-06  0.12950390E-05
  0.20561369E-05  0.27918883E-05  0.34982261E-05  0.41713305E-05  0.48076478E-05
  0.54039078E-05  0.59571385E-05  0.64646792E-05  0.69241917E-05  0.73336686E-05
  0.76914405E-05  0.79961800E-05  0.82469043E-05  0.84429755E-05  0.85840986E-05
  0.86703175E-05  0.87020095E-05  0.86798771E-05  0.86049388E-05  0.84785172E-05
  0.83022265E-05  0.80779578E-05  0.78078626E-05  0.74943364E-05  0.71399995E-05
  0.67476776E-05  0.63203815E-05  0.58612857E-05  0.53737066E-05  0.48610799E-05
  0.43269382E-05  0.37748876E-05  0.32085850E-05  0.26317151E-05  0.20479673E-05
  0.14610137E-05  0.87448678E-06  0.29195834E-06 -0.28308145E-06 -0.84724372E-06
 -0.13972599E-05 -0.19299994E-05 -0.24424868E-05 -0.29319170E-05 -0.33956695E-05
 -0.38313217E-05 -0.42366601E-05 -0.46096907E-05 -0.49486471E-05 -0.52519982E-05
 -0.55184534E-05 -0.57469667E-05 -0.59367392E-05 -0.60872201E-05 -0.61981061E-05
 -0.62693391E-05 -0.63011034E-05 -0.62938200E-05 -0.62481408E-05 -0.61649411E-05
 -0.60453104E-05 -0.58905428E-05 -0.57021262E-05 -0.54817295E-05 -0.52311905E-05
 -0.49525018E-05 -0.46477962E-05 -0.43193319E-05 -0.39694766E-05 -0.36006918E-05
 -0.32155162E-05 -0.28165491E-05 -0.24064339E-05 -0.19878413E-05 -0.15634527E-05
 -0.11359439E-05 -0.70796873E-06 -0.28214370E-06  0.13896771E-06  0.55286950E-06
  0.95714736E-06  0.13494820E-05  0.17276618E-05  0.20895946E-05  0.24333185E-05
  0.27570118E-05  0.30590020E-05  0.33377737E-05  0.35919751E-05  0.38204241E-05
  0.40221131E-05  0.41962116E-05  0.43420698E-05  0.44592187E-05  0.45473710E-05
  0.46064199E-05  0.46364370E-05  0.46376692E-05  0.46105347E-05  0.45556179E-05
  0.44736634E-05  0.43655690E-05  0.42323783E-05  0.40752719E-05  0.38955583E-05
  0.36946642E-05  0.34741240E-05  0.32355692E-05  0.29807167E-05  0.27113572E-05
  0.24293437E-05  0.21365788E-05  0.18350028E-05  0.15265814E-05  0.12132931E-05
  0.89711747E-06  0.58002279E-06  0.26395445E-06 -0.49176511E-07 -0.35750454E-06
 -0.65922017E-06 -0.95258018E-06 -0.12359172E-05 -0.15076488E-05 -0.17662857E-05
 -0.20104396E-05 -0.22388300E-05 -0.24502906E-05 -0.26437745E-05 -0.28183591E-05
 -0.29732496E-05 -0.31077825E-05 -0.32214269E-05 -0.33137868E-05 -0.33846009E-05
 -0.34337427E-05 -0.34612188E-05 -0.34671677E-05 -0.34518565E-05 -0.34156777E-05
 -0.33591453E-05 -0.32828893E-05 -0.31876509E-05 -0.30742762E-05 -0.29437097E-05
 -0.27969868E-05 -0.26352270E-05 -0.24596250E-05 -0.22714434E-05 -0.20720032E-05
 -0.18626757E-05 -0.16448731E-05 -0.14200392E-05 -0.11896410E-05 -0.95515849E-06
 -0.71807621E-06 -0.47987390E-06 -0.24201768E-06 -0.59513431E-08  0.22691210E-06
  0.45519855E-06  0.67758059E-06  0.89278489E-06  0.10995992E-05  0.12968789E-05
  0.14835528E-05  0.16586289E-05  0.18211992E-05  0.19704440E-05  0.21056357E-05
  0.22261419E-05  0.23314282E-05  0.24210597E-05  0.24947025E-05  0.25521245E-05
  0.25931950E-05  0.26178847E-05  0.26262639E-05  0.26185012E-05  0.25948608E-05
  0.25557000E-05  0.25014654E-05  0.24326893E-05  0.23499849E-05  0.22540421E-05
  0.21456217E-05  0.20255504E-05  0.18947144E-05  0.17540535E-05  0.16045547E-05
  0.14472455E-05  0.12831873E-05  0.11134681E-05  0.93919624E-06  0.76149272E-06
  0.58148469E-06  0.40029835E-06  0.21905222E-06  0.38850386E-07 -0.13922392E-06
 -0.31411465E-06 -0.48479897E-06 -0.65029305E-06 -0.80965744E-06 -0.96200226E-06
 -0.11064919E-05 -0.12423494E-05 -0.13688602E-05 -0.14853762E-05 -0.15913180E-05
 -0.16861782E-05 -0.17695234E-05 -0.18409954E-05 -0.19003131E-05 -0.19472727E-05
 -0.19817481E-05 -0.20036906E-05 -0.20131283E-05 -0.20101648E-05 -0.19949779E-05
 -0.19678169E-05 -0.19290010E-05 -0.18789160E-05 -0.18180110E-05 -0.17467952E-05
 -0.16658338E-05 -0.15757441E-05 -0.14771907E-05 -0.13708814E-05 -0.12575618E-05
 -0.11380107E-05 -0.10130348E-05 -0.88346351E-06 -0.75014359E-06 -0.61393383E-06
 -0.47569966E-06 -0.33630788E-06 -0.19662132E-06 -0.57493741E-07  0.80235299E-07
  0.21574530E-06  0.34823957E-06  0.47694976E-06  0.60114014E-06  0.72011167E-06
  0.83320576E-06  0.93980776E-06  0.10393501E-05  0.11313153E-05  0.12152381E-05
  0.12907081E-05  0.13573713E-05  0.14149314E-05  0.14631514E-05  0.15018536E-05
  0.15309205E-05  0.15502945E-05  0.15599775E-05  0.15600304E-05  0.15505717E-05
  0.15317761E-05  0.15038730E-05  0.14671441E-05  0.14219214E-05  0.13685843E-05
  0.13075568E-05  0.12393043E-05  0.11643306E-05  0.10831739E-05  0.99640350E-06
  0.90461574E-06  0.80843019E-06  0.70848555E-06  0.60543556E-06  0.49994487E-06
  0.39268484E-06  0.28432945E-06  0.17555113E-06  0.67016733E-07 -0.40616447E-07
 -0.14670453E-06 -0.25062082E-06 -0.35175933E-06 -0.44953830E-06 -0.54340333E-06
 -0.63283047E-06 -0.71732902E-06 -0.79644409E-06 -0.86975894E-06 -0.93689702E-06
 atomic pseudo charge-density
  0.60000000E+01  0.59876385E+01  0.59507352E+01  0.58898286E+01  0.58057971E+01
  0.56998309E+01  0.55733955E+01  0.54281887E+01  0.52660925E+01  0.50891230E+01
  0.48993802E+01  0.46990005E+01  0.44901118E+01  0.42747944E+01  0.40550472E+01
  0.38327599E+01  0.36096921E+01  0.33874572E+01  0.31675132E+01  0.29511571E+01
  0.27395246E+01  0.25335923E+01  0.23341841E+01  0.21419781E+01  0.19575165E+01
  0.17812152E+01  0.16133757E+01  0.14541952E+01  0.13037783E+01  0.11621476E+01
  0.10292537E+01  0.90498539E+00  0.78917859E+00  0.68162457E+00  0.58207778E+00
  0.49026282E+00  0.40588074E+00  0.32861465E+00  0.25813474E+00  0.19410273E+00
  0.13617569E+00  0.84009485E-01  0.37261608E-01 -0.44062848E-02 -0.41326298E-01
 -0.73822538E-01 -0.10220968E+00 -0.12679179E+00 -0.14786146E+00 -0.16569907E+00
 -0.18057232E+00 -0.19273593E+00 -0.20243142E+00 -0.20988713E+00 -0.21531824E+00
 -0.21892693E+00 -0.22090269E+00 -0.22142254E+00 -0.22065144E+00 -0.21874271E+00
 -0.21583842E+00 -0.21206989E+00 -0.20755814E+00 -0.20241441E+00 -0.19674063E+00
 -0.19062993E+00 -0.18416714E+00 -0.17742923E+00 -0.17048584E+00 -0.16339972E+00
 -0.15622718E+00 -0.14901851E+00 -0.14181842E+00 -0.13466644E+00 -0.12759728E+00
 -0.12064121E+00 -0.11382440E+00 -0.10716928E+00 -0.10069478E+00 -0.94416703E-01
 -0.88347948E-01 -0.82498790E-01 -0.76877122E-01 -0.71488678E-01 -0.66337251E-01
 -0.61424890E-01 -0.56752084E-01 -0.52317936E-01 -0.48120322E-01 -0.44156040E-01
 -0.40420945E-01 -0.36910078E-01 -0.33617779E-01 -0.30537796E-01 -0.27663386E-01
 -0.24987399E-01 -0.22502364E-01 -0.20200562E-01 -0.18074097E-01 -0.16114953E-01
 -0.14315051E-01 -0.12666302E-01 -0.11160646E-01 -0.97900960E-02 -0.85467726E-02
 -0.74229330E-02 -0.64110000E-02 -0.55035846E-02 -0.46935064E-02 -0.39738106E-02
 -0.33377824E-02 -0.27789582E-02 -0.22911350E-02 -0.18683774E-02 -0.15050224E-02
 -0.11956826E-02 -0.93524775E-03 -0.71888432E-03 -0.54203442E-03 -0.40041288E-03
 -0.29000356E-03 -0.20705450E-03 -0.14807232E-03 -0.10981575E-03 -0.89288577E-04
 -0.83731953E-04 -0.90616239E-04 -0.10763244E-03 -0.13268327E-03 -0.16387400E-03
 -0.19950305E-03 -0.23805249E-03 -0.27817835E-03 -0.31870106E-03 -0.35859569E-03
 -0.39698243E-03 -0.43311702E-03 -0.46638138E-03 -0.49627439E-03 -0.52240283E-03
 -0.54447254E-03 -0.56227985E-03 -0.57570326E-03 -0.58469532E-03 -0.58927498E-03
 -0.58952002E-03 -0.58556003E-03 -0.57756952E-03 -0.56576155E-03 -0.55038152E-03
 -0.53170150E-03 -0.51001473E-03 -0.48563062E-03 -0.45886999E-03 -0.43006076E-03
 -0.39953387E-03 -0.36761967E-03 -0.33464453E-03 -0.30092786E-03 -0.26677938E-03
 -0.23249681E-03 -0.19836370E-03 -0.16464773E-03 -0.13159915E-03 -0.99449546E-04
 -0.68410883E-04 -0.38674736E-04 -0.10411793E-04  0.16228443E-04  0.41117753E-04
  0.64149105E-04  0.85236386E-04  0.10431398E-03  0.12133620E-03  0.13627657E-03
  0.14912704E-03  0.15989702E-03  0.16861242E-03  0.17531452E-03  0.18005884E-03
  0.18291397E-03  0.18396027E-03  0.18328866E-03  0.18099931E-03  0.17720038E-03
  0.17200672E-03  0.16553861E-03  0.15792053E-03  0.14927991E-03  0.13974603E-03
  0.12944882E-03  0.11851784E-03  0.10708120E-03  0.95264675E-04  0.83190775E-04
  0.70977921E-04  0.58739710E-04  0.46584229E-04  0.34613465E-04  0.22922772E-04
  0.11600432E-04  0.72727877E-06 -0.96235935E-05 -0.19387052E-04 -0.28506072E-04
 -0.36931816E-04 -0.44623644E-04 -0.51549056E-04 -0.57683579E-04 -0.63010591E-04
 -0.67521095E-04 -0.71213441E-04 -0.74093000E-04 -0.76171806E-04 -0.77468151E-04
 -0.78006153E-04 -0.77815301E-04 -0.76929966E-04 -0.75388907E-04 -0.73234757E-04
 -0.70513497E-04 -0.67273937E-04 -0.63567183E-04 -0.59446119E-04 -0.54964889E-04
 -0.50178399E-04 -0.45141822E-04 -0.39910134E-04 -0.34537662E-04 -0.29077659E-04
 -0.23581905E-04 -0.18100336E-04 -0.12680701E-04 -0.73682564E-05 -0.22054847E-05
  0.27681471E-05  0.75163969E-05  0.12006423E-04  0.16208922E-04  0.20098240E-04
  0.23652439E-04  0.26853337E-04  0.29686517E-04  0.32141300E-04  0.34210692E-04
  0.35891300E-04  0.37183225E-04  0.38089927E-04  0.38618069E-04  0.38777339E-04
  0.38580256E-04  0.38041959E-04  0.37179980E-04  0.36014006E-04  0.34565634E-04
  0.32858120E-04  0.30916117E-04  0.28765415E-04  0.26432685E-04  0.23945214E-04
  0.21330655E-04  0.18616777E-04  0.15831224E-04  0.13001282E-04  0.10153659E-04
  0.73142815E-05  0.45080919E-05  0.17588755E-05 -0.91090590E-06 -0.34802603E-05
 -0.59297956E-05 -0.82418309E-05 -0.10400491E-04 -0.12391781E-04 -0.14203643E-04
 -0.15825998E-04 -0.17250762E-04 -0.18471853E-04 -0.19485175E-04 -0.20288589E-04
 -0.20881868E-04 -0.21266636E-04 -0.21446292E-04 -0.21425926E-04 -0.21212221E-04
 -0.20813339E-04 -0.20238809E-04 -0.19499400E-04 -0.18606983E-04 -0.17574403E-04
 -0.16415327E-04 -0.15144107E-04 -0.13775633E-04 -0.12325182E-04 -0.10808281E-04
 -0.92405583E-05 -0.76376085E-05 -0.60148560E-05 -0.43874265E-05 -0.27700251E-05
 -0.11768203E-05  0.37866278E-06  0.18836408E-05  0.33261618E-05  0.46951840E-05
  0.59806457E-05  0.71735234E-05  0.82658807E-05  0.92509048E-05  0.10122934E-04
  0.10877473E-04  0.11511198E-04  0.12021953E-04  0.12408734E-04  0.12671664E-04
  0.12811963E-04  0.12831902E-04  0.12734753E-04  0.12524737E-04  0.12206955E-04
  0.11787320E-04  0.11272484E-04  0.10669757E-04  0.99870245E-05  0.92326636E-05
  0.84154545E-05  0.75444929E-05  0.66291012E-05  0.56787400E-05  0.47029212E-05
  0.37111233E-05  0.27127080E-05  0.17168417E-05  0.73241966E-06 -0.23200536E-06
 -0.11682889E-05 -0.20687561E-05 -0.29262567E-05 -0.37342142E-05 -0.44866690E-05
 -0.51783146E-05 -0.58045273E-05 -0.63613893E-05 -0.68457047E-05 -0.72550093E-05
 -0.75875729E-05 -0.78423962E-05 -0.80192005E-05 -0.81184116E-05 -0.81411380E-05
 -0.80891438E-05 -0.79648161E-05 -0.77711284E-05 -0.75115989E-05 -0.71902460E-05
 -0.68115398E-05 -0.63803512E-05 -0.59018986E-05 -0.53816931E-05 -0.48254818E-05
 -0.42391915E-05 -0.36288711E-05 -0.30006352E-05 -0.23606079E-05 -0.17148682E-05
 -0.10693971E-05 -0.43002656E-06  0.19760850E-06  0.80811574E-06  0.13963875E-05
  0.19576394E-05  0.24874452E-05  0.29817678E-05  0.34369855E-05  0.38499149E-05
  0.42178286E-05  0.45384685E-05  0.48100555E-05  0.50312932E-05  0.52013688E-05
  0.53199490E-05  0.53871712E-05  0.54036318E-05  0.53703703E-05  0.52888491E-05
  0.51609313E-05  0.49888545E-05  0.47752023E-05  0.45228729E-05  0.42350466E-05
  0.39151506E-05  0.35668223E-05  0.31938728E-05  0.28002482E-05  0.23899915E-05
  0.19672041E-05  0.15360081E-05  0.11005081E-05  0.66475596E-06  0.23271456E-06
 -0.19177501E-06 -0.60502546E-06 -0.10035329E-05 -0.13840043E-05 -0.17433823E-05
 -0.20788673E-05 -0.23879373E-05 -0.26683641E-05 -0.29182273E-05 -0.31359244E-05
 -0.33201785E-05 -0.34700427E-05 -0.35849015E-05 -0.36644692E-05 -0.37087854E-05
 -0.37182074E-05 -0.36934006E-05 -0.36353256E-05 -0.35452235E-05 -0.34245987E-05
 -0.32751997E-05 -0.30989984E-05 -0.28981674E-05 -0.26750564E-05 -0.24321673E-05
 -0.21721285E-05 -0.18976684E-05 -0.16115892E-05 -0.13167395E-05 -0.10159882E-05
 -0.71219800E-06 -0.40819976E-06 -0.10676765E-06  0.18940470E-06  0.47772680E-06
  0.75573257E-06  0.10211000E-05  0.12716693E-05  0.15054588E-05  0.17206795E-05
  0.19157471E-05  0.20892924E-05  0.22401689E-05  0.23674592E-05  0.24704784E-05
  0.25487754E-05  0.26021328E-05  0.26305638E-05  0.26343078E-05  0.26138233E-05
  0.25697801E-05  0.25030482E-05  0.24146867E-05  0.23059304E-05  0.21781746E-05
  0.20329602E-05  0.18719562E-05  0.16969426E-05  0.15097916E-05  0.13124496E-05
  0.11069174E-05  0.89523151E-06  0.67944498E-06  0.46160831E-06  0.24375108E-06
  0.27863963E-07 -0.18411860E-06 -0.39033479E-06 -0.58901092E-06 -0.77847579E-06
 -0.95717391E-06 -0.11236774E-05 -0.12766964E-05 -0.14150883E-05 -0.15378653E-05
 -0.16442003E-05 -0.17334315E-05 -0.18050653E-05 -0.18587777E-05 -0.18944138E-05
 -0.19119862E-05 -0.19116720E-05 -0.18938077E-05 -0.18588836E-05 -0.18075361E-05
 -0.17405396E-05 -0.16587968E-05 -0.15633280E-05 -0.14552599E-05 -0.13358132E-05
 -0.12062900E-05 -0.10680605E-05 -0.92254904E-06 -0.77122042E-06 -0.61556585E-06
 -0.45708885E-06 -0.29729139E-06 -0.13766032E-06  0.20345949E-07  0.17531010E-06
  0.32586811E-06  0.47072068E-06  0.60864384E-06  0.73849880E-06  0.85924074E-06
  0.96992664E-06  0.10697220E-05  0.11579067E-05  0.12338792E-05  0.12971602E-05
  0.13473947E-05  0.13843530E-05  0.14079308E-05  0.14181477E-05  0.14151449E-05
  0.13991820E-05  0.13706323E-05  0.13299776E-05  0.12778018E-05  0.12147839E-05
  0.11416901E-05  0.10593655E-05  0.96872458E-06  0.87074235E-06  0.76644386E-06
  0.65689428E-06  0.54318842E-06  0.42644030E-06  0.30777264E-06  0.18830647E-06
  0.69151001E-07 -0.48606333E-07 -0.16390939E-06 -0.27574241E-06 -0.38313862E-06
 -0.48518815E-06 -0.58104546E-06 -0.66993585E-06 -0.75116145E-06 -0.82410620E-06
 -0.88824012E-06 -0.94312273E-06 -0.98840554E-06 -0.10238337E-05 -0.10492468E-05
 -0.10645786E-05 -0.10698564E-05 -0.10651988E-05 -0.10508135E-05 -0.10269939E-05
 -0.99411448E-06 -0.95262685E-06 -0.90305376E-06 -0.84598340E-06 -0.78206292E-06
 -0.71199157E-06 -0.63651344E-06 -0.55640995E-06 -0.47249211E-06 -0.38559264E-06
 -0.29655798E-06 -0.20624040E-06 -0.11549006E-06 -0.25147335E-07  0.63964748E-07
  0.15104771E-06  0.23533454E-06  0.31609619E-06  0.39264762E-06  0.46435333E-06
  0.53063243E-06  0.59096301E-06  0.64488603E-06  0.69200843E-06  0.73200576E-06
  0.76462400E-06  0.78968077E-06  0.80706589E-06  0.81674121E-06  0.81873984E-06
  0.81316471E-06  0.80018656E-06  0.78004127E-06  0.75302671E-06  0.71949904E-06
  0.67986853E-06  0.63459497E-06  0.58418270E-06  0.52917528E-06  0.47014993E-06
  0.40771173E-06  0.34248764E-06  0.27512042E-06  0.20626254E-06  0.13657000E-06
  0.66696360E-07 -0.27132793E-08 -0.71028004E-07 -0.13763666E-06 -0.20195312E-06
 -0.26342129E-06 -0.32151973E-06 -0.37576588E-06 -0.42571988E-06 -0.47098798E-06
 -0.51122540E-06 -0.54613878E-06 -0.57548803E-06 -0.59908776E-06 -0.61680817E-06
 -0.62857533E-06 -0.63437106E-06 -0.63423225E-06 -0.62824969E-06 -0.61656640E-06
 -0.59937559E-06 -0.57691810E-06 -0.54947947E-06 -0.51738670E-06 -0.48100459E-06
 -0.44073188E-06 -0.39699705E-06 -0.35025397E-06 -0.30097737E-06 -0.24965820E-06
 -0.19679884E-06 -0.14290838E-06 -0.88497830E-07 -0.34075434E-07  0.19857974E-07
  0.72813426E-07  0.12431814E-06  0.17391959E-06  0.22118940E-06  0.26572686E-06
  0.30716222E-06  0.34515964E-06  0.37941974E-06  0.40968184E-06  0.43572575E-06
  0.45737324E-06  0.47448904E-06  0.48698145E-06  0.49480258E-06  0.49794811E-06
  0.49645673E-06  0.49040917E-06  0.47992683E-06  0.46517008E-06  0.44633627E-06
  0.42365734E-06  0.39739722E-06  0.36784895E-06  0.33533159E-06  0.30018688E-06
  0.26277584E-06  0.22347514E-06  0.18267345E-06  0.14076768E-06  0.98159260E-07
  0.55250350E-07  0.12440179E-07 -0.29878593E-07 -0.71323379E-07 -0.11152503E-06
 -0.15013103E-06 -0.18680851E-06 -0.22124699E-06 -0.25316094E-06 -0.28229205E-06
 -0.30841121E-06 -0.33132018E-06 -0.35085301E-06 -0.36687710E-06 -0.37929394E-06
 -0.38803956E-06 -0.39308460E-06 -0.39443413E-06 -0.39212711E-06 -0.38623558E-06
 -0.37686350E-06 -0.36414540E-06 -0.34824468E-06 -0.32935174E-06 -0.30768186E-06
 -0.28347288E-06 -0.25698267E-06 -0.22848654E-06 -0.19827445E-06 -0.16664814E-06
 -0.13391823E-06 -0.10040119E-06 -0.66416433E-07 -0.32283269E-07  0.16819737E-08
  0.35168833E-07  0.67875476E-07  0.99511355E-07  0.12979972E-06  0.15847996E-06
  0.18530980E-06  0.21006726E-06  0.23255241E-06  0.25258892E-06  0.27002537E-06
  0.28473626E-06  0.29662287E-06  0.30561376E-06  0.31166508E-06  0.31476061E-06
  0.31491149E-06  0.31215583E-06  0.30655791E-06  0.29820732E-06  0.28721773E-06
  0.27372558E-06  0.25788849E-06  0.23988354E-06  0.21990538E-06  0.19816424E-06
  0.17488373E-06  0.15029868E-06  0.12465277E-06  0.98196223E-07  0.71183414E-07
  0.43870454E-07  0.16512839E-07 -0.10636897E-07 -0.37331460E-07 -0.63330996E-07
 -0.88405199E-07 -0.11233530E-06 -0.13491591E-06 -0.15595677E-06 -0.17528423E-06
 -0.19274272E-06 -0.20819586E-06 -0.22152748E-06 -0.23264248E-06 -0.24146733E-06
 -0.24795057E-06 -0.25206291E-06 -0.25379725E-06 -0.25316846E-06 -0.25021295E-06
 -0.24498804E-06 -0.23757120E-06 -0.22805904E-06 -0.21656622E-06 -0.20322409E-06
 -0.18817936E-06 -0.17159247E-06 -0.15363602E-06 -0.13449296E-06 -0.11435481E-06
 -0.93419786E-07 -0.71890888E-07 -0.49973987E-07 -0.27875885E-07 -0.58024075E-08
  0.16043472E-07  0.37463465E-07  0.58265723E-07  0.78266526E-07  0.97291856E-07
  0.11517888E-06  0.13177731E-06  0.14695060E-06  0.16057706E-06  0.17255075E-06
  0.18278227E-06  0.19119940E-06  0.19774748E-06  0.20238977E-06  0.20510750E-06
  0.20589983E-06  0.20478366E-06  0.20179321E-06  0.19697953E-06  0.19040978E-06
  0.18216644E-06  0.17234636E-06  0.16105966E-06  0.14842858E-06  0.13458621E-06
  0.11967510E-06  0.10384588E-06  0.87255720E-07  0.70066852E-07  0.52444992E-07
  0.34557780E-07  0.16573217E-07 -0.13418833E-08 -0.19023412E-07 -0.36311441E-07
 -0.53051637E-07 -0.69096612E-07 -0.84307192E-07 -0.98553593E-07 -0.11171650E-06
 -0.12368802E-06 -0.13437257E-06 -0.14368754E-06 -0.15156397E-06 -0.15794695E-06
 -0.16279599E-06 -0.16608519E-06 -0.16780332E-06 -0.16795374E-06 -0.16655418E-06
 -0.16363641E-06 -0.15924578E-06 -0.15344061E-06 -0.14629156E-06 -0.13788074E-06
 -0.12830091E-06 -0.11765442E-06 -0.10605221E-06 -0.93612641E-07 -0.80460370E-07
 -0.66725079E-07 -0.52540249E-07 -0.38041883E-07 -0.23367227E-07 -0.86534897E-08
  0.59634102E-08  0.20350082E-07  0.34376856E-07  0.47918929E-07  0.60857454E-07
  0.73080559E-07  0.84484290E-07  0.94973472E-07  0.10446248E-06  0.11287590E-06
  0.12014912E-06  0.12622878E-06  0.13107313E-06  0.13465226E-06  0.13694826E-06
  0.13795525E-06  0.13767923E-06  0.13613796E-06  0.13336061E-06  0.12938735E-06
  0.12426891E-06  0.11806591E-06  0.11084823E-06  0.10269427E-06  0.93690111E-07
  0.83928612E-07  0.73508519E-07  0.62533465E-07  0.51110966E-07  0.39351387E-07
  0.27366895E-07  0.15270408E-07  0.31745499E-08 -0.88093808E-08 -0.20572418E-07
 -0.32008901E-07 -0.43017404E-07 -0.53501624E-07 -0.63371198E-07 -0.72542466E-07
 -0.80939164E-07 -0.88493034E-07 -0.95144361E-07 -0.10084242E-06 -0.10554583E-06
 -0.10922284E-06 -0.11185150E-06 -0.11341976E-06 -0.11392543E-06 -0.11337614E-06
 -0.11178910E-06 -0.10919089E-06 -0.10561705E-06 -0.10111170E-06 -0.95726979E-07
 -0.89522545E-07 -0.82564882E-07 -0.74926634E-07 -0.66685869E-07 -0.57925292E-07
 -0.48731437E-07 -0.39193830E-07 -0.29404127E-07 -0.19455254E-07 -0.94405348E-08
  0.54716708E-09  0.10416298E-07  0.20077437E-07  0.29444096E-07  0.38433478E-07
  0.46967195E-07  0.54971937E-07  0.62380088E-07  0.69130283E-07  0.75167897E-07
  0.80445473E-07  0.84923074E-07  0.88568565E-07  0.91357820E-07  0.93274850E-07
  0.94311863E-07  0.94469236E-07  0.93755425E-07  0.92186792E-07  0.89787366E-07
  0.86588541E-07  0.82628696E-07  0.77952771E-07  0.72611780E-07  0.66662270E-07
  0.60165745E-07  0.53188044E-07  0.45798686E-07  0.38070195E-07  0.30077396E-07
  0.21896709E-07  0.13605423E-07  0.52809805E-08 -0.29997327E-08 -0.11161091E-07
 -0.19129405E-07 -0.26833580E-07 -0.34205734E-07 -0.41181791E-07 -0.47702020E-07
 -0.53711540E-07 -0.59160767E-07 -0.64005809E-07 -0.68208810E-07 -0.71738223E-07
 -0.74569038E-07 -0.76682933E-07 -0.78068370E-07 -0.78720626E-07 -0.78641760E-07
 -0.77840522E-07 -0.76332197E-07 -0.74138391E-07 -0.71286768E-07 -0.67810726E-07
 -0.63749028E-07 -0.59145390E-07 -0.54048021E-07 -0.48509137E-07 -0.42584437E-07
 -0.36332549E-07 -0.29814469E-07 -0.23092968E-07 -0.16232000E-07 -0.92961049E-08
 -0.23498061E-08  0.45429780E-08  0.11319515E-07  0.17918819E-07  0.24282195E-07
  0.30353746E-07  0.36080859E-07  0.41414654E-07  0.46310387E-07  0.50727815E-07
  0.54631524E-07  0.57991191E-07  0.60781814E-07  0.62983882E-07  0.64583496E-07
  0.65572430E-07  0.65948153E-07  0.65713787E-07  0.64878017E-07  0.63454953E-07
  0.61463942E-07  0.58929334E-07  0.55880204E-07  0.52350040E-07  0.48376380E-07
  0.44000433E-07  0.39266657E-07  0.34222318E-07  0.28917026E-07  0.23402259E-07
  0.17730866E-07  0.11956570E-07  0.61334679E-08  0.31552917E-09 -0.54438974E-08
 -0.11092566E-07 -0.16579799E-07 -0.21856939E-07 -0.26877768E-07 -0.31598909E-07
 -0.35980192E-07 -0.39984988E-07 -0.43580506E-07 -0.46738056E-07 -0.49433265E-07
   19.8421228800787      T
 Non local Part
           0           2   1.02776980335195     
   11.8805987233866        13.6046033764996        13.6046033764996     
   15.5797554505415     
 Reciprocal Space Part
  0.18367783E+03  0.18228668E+03  0.17813564E+03  0.17129158E+03  0.16186452E+03
  0.15000560E+03  0.13590421E+03  0.11978447E+03  0.10190101E+03  0.82534314E+02
  0.61985492E+02  0.40570800E+02  0.18615895E+02 -0.35500017E+01 -0.25599941E+02
 -0.47214949E+02 -0.68089498E+02 -0.87936618E+02 -0.10649258E+03 -0.12352103E+03
 -0.13881655E+03 -0.15220749E+03 -0.16355819E+03 -0.17277036E+03 -0.17978378E+03
 -0.18457620E+03 -0.18716257E+03 -0.18759355E+03 -0.18595334E+03 -0.18235697E+03
 -0.17694709E+03 -0.16989031E+03 -0.16137318E+03 -0.15159795E+03 -0.14077822E+03
 -0.12913442E+03 -0.11688949E+03 -0.10426454E+03 -0.91474835E+02 -0.78726008E+02
 -0.66210689E+02 -0.54105513E+02 -0.42568613E+02 -0.31737605E+02 -0.21728107E+02
 -0.12632770E+02 -0.45208534E+01  0.25616974E+01  0.85916878E+01  0.13567659E+02
  0.17508468E+02  0.20451519E+02  0.22450700E+02  0.23574083E+02  0.23901460E+02
  0.23521781E+02  0.22530545E+02  0.21027219E+02  0.19112746E+02  0.16887182E+02
  0.14447514E+02  0.11885711E+02  0.92870257E+01  0.67285753E+01  0.42782242E+01
  0.19937696E+01 -0.77567206E-01 -0.18993515E+01 -0.34458632E+01 -0.47017624E+01
 -0.56615196E+01 -0.63286411E+01 -0.67147235E+01 -0.68383740E+01 -0.67240353E+01
 -0.64007504E+01 -0.59009072E+01 -0.52589957E+01 -0.45104125E+01 -0.36903394E+01
 -0.28327229E+01 -0.19693752E+01 -0.11292117E+01 -0.33763724E+00  0.38391323E+00
  0.10182785E+01  0.15527215E+01  0.19789348E+01  0.22929107E+01  0.24946917E+01
  0.25880159E+01  0.25798781E+01  0.24800242E+01  0.23004013E+01  0.20545813E+01
  0.17571807E+01  0.14232924E+01  0.10679470E+01  0.70561940E+00  0.34979155E+00
 Real Space Part
 -0.98604459E+03 -0.98555920E+03 -0.98410352E+03 -0.98167896E+03 -0.97828793E+03
 -0.97393379E+03 -0.96862086E+03 -0.96235445E+03 -0.95514087E+03 -0.94698742E+03
 -0.93790244E+03 -0.92789529E+03 -0.91697640E+03 -0.90515727E+03 -0.89245053E+03
 -0.87886992E+03 -0.86443032E+03 -0.84914782E+03 -0.83303973E+03 -0.81612459E+03
 -0.79842223E+03 -0.77995381E+03 -0.76074182E+03 -0.74081017E+03 -0.72018419E+03
 -0.69889068E+03 -0.67695795E+03 -0.65441585E+03 -0.63129584E+03 -0.60763099E+03
 -0.58345604E+03 -0.55880743E+03 -0.53372333E+03 -0.50824368E+03 -0.48241020E+03
 -0.45626641E+03 -0.42985768E+03 -0.40323118E+03 -0.37643596E+03 -0.34952286E+03
 -0.32254454E+03 -0.29555546E+03 -0.26861179E+03 -0.24177140E+03 -0.21509377E+03
 -0.18863989E+03 -0.16247217E+03 -0.13665428E+03 -0.11125102E+03 -0.86328116E+02
 -0.61952034E+02 -0.38189728E+02 -0.15108373E+02  0.72249299E+01  0.28743489E+02
  0.49381387E+02  0.69073887E+02  0.87757861E+02  0.10537226E+03  0.12185864E+03
  0.13716164E+03  0.15122960E+03  0.16401512E+03  0.17547566E+03  0.18557419E+03
  0.19427977E+03  0.20156822E+03  0.20742271E+03  0.21183437E+03  0.21480285E+03
  0.21633686E+03  0.21645464E+03  0.21518435E+03  0.21256442E+03  0.20864376E+03
  0.20348190E+03  0.19714901E+03  0.18972576E+03  0.18130312E+03  0.17198193E+03
  0.16187236E+03  0.15109327E+03  0.13977136E+03  0.12804024E+03  0.11603928E+03
  0.10391251E+03  0.91807174E+02  0.79872498E+02  0.68258115E+02  0.57112642E+02
  0.46582157E+02  0.36808697E+02  0.27928811E+02  0.20072156E+02  0.13360139E+02
  0.79049148E+01  0.38081036E+01  0.11542301E+01  0.50105581E-01  0.00000000E+00
 Reciprocal Space Part
 -0.15516979E+03 -0.15396780E+03 -0.15038127E+03 -0.14446813E+03 -0.13632375E+03
 -0.12607910E+03 -0.11389829E+03 -0.99975533E+02 -0.84531479E+02 -0.67809138E+02
 -0.50069389E+02 -0.31586205E+02 -0.12641674E+02  0.64790645E+01  0.25492883E+02
  0.44123612E+02  0.62106778E+02  0.79194046E+02  0.95157269E+02  0.10979208E+03
  0.12292097E+03  0.13439574E+03  0.14409943E+03  0.15194750E+03  0.15788844E+03
  0.16190369E+03  0.16400692E+03  0.16424277E+03  0.16268495E+03  0.15943391E+03
  0.15461399E+03  0.14837027E+03  0.14086509E+03  0.13227436E+03  0.12278375E+03
  0.11258483E+03  0.10187123E+03  0.90834975E+02  0.79662911E+02  0.68533484E+02
  0.57613778E+02  0.47056936E+02  0.36999987E+02  0.27562104E+02  0.18843316E+02
  0.10923683E+02  0.38629249E+01 -0.22995008E+01 -0.75439032E+01 -0.11869471E+02
 -0.15293034E+02 -0.17847521E+02 -0.19580161E+02 -0.20550486E+02 -0.20828180E+02
 -0.20490857E+02 -0.19621786E+02 -0.18307654E+02 -0.16636395E+02 -0.14695135E+02
 -0.12568305E+02 -0.10335940E+02 -0.80722068E+01 -0.58441773E+01 -0.37108545E+01
 -0.17224699E+01  0.79956465E-01  0.16647959E+01  0.30097456E+01  0.41015353E+01
  0.49354291E+01  0.55145492E+01  0.58490524E+01  0.59551886E+01  0.58542777E+01
  0.55716347E+01  0.51354762E+01  0.45758400E+01  0.39235441E+01  0.32092123E+01
  0.24623862E+01  0.17107441E+01  0.97943840E+00  0.29056217E+00 -0.33724939E+00
 -0.88908229E+00 -0.13538739E+01 -0.17244167E+01 -0.19972445E+01 -0.21724146E+01
 -0.22531988E+01 -0.22457007E+01 -0.21584157E+01 -0.20017519E+01 -0.17875289E+01
 -0.15284724E+01 -0.12377198E+01 -0.92835237E+00 -0.61296509E+00 -0.30328701E+00
 Real Space Part
  0.86477843E+03  0.86435419E+03  0.86308189E+03  0.86096278E+03  0.85799896E+03
  0.85419334E+03  0.84954972E+03  0.84407274E+03  0.83776789E+03  0.83064157E+03
  0.82270104E+03  0.81395450E+03  0.80441105E+03  0.79408073E+03  0.78297458E+03
  0.77110458E+03  0.75848375E+03  0.74512613E+03  0.73104683E+03  0.71626204E+03
  0.70078909E+03  0.68464644E+03  0.66785373E+03  0.65043185E+03  0.63240289E+03
  0.61379025E+03  0.59461866E+03  0.57491417E+03  0.55470424E+03  0.53401774E+03
  0.51288499E+03  0.49133779E+03  0.46940947E+03  0.44713486E+03  0.42455039E+03
  0.40169405E+03  0.37860541E+03  0.35532565E+03  0.33189756E+03  0.30836551E+03
  0.28477546E+03  0.26117491E+03  0.23761290E+03  0.21413991E+03  0.19080785E+03
  0.16766992E+03  0.14478060E+03  0.12219543E+03  0.99970952E+02  0.78164533E+02
  0.56834165E+02  0.36038275E+02  0.15835484E+02 -0.37156467E+01 -0.22556912E+02
 -0.40630781E+02 -0.57880743E+02 -0.74251692E+02 -0.89690333E+02 -0.10414562E+03
 -0.11756922E+03 -0.12991601E+03 -0.14114457E+03 -0.15121771E+03 -0.16010305E+03
 -0.16777352E+03 -0.17420791E+03 -0.17939144E+03 -0.18331627E+03 -0.18598197E+03
 -0.18739599E+03 -0.18757412E+03 -0.18654077E+03 -0.18432931E+03 -0.18098222E+03
 -0.17655129E+03 -0.17109754E+03 -0.16469116E+03 -0.15741133E+03 -0.14934581E+03
 -0.14059053E+03 -0.13124898E+03 -0.12143150E+03 -0.11125445E+03 -0.10083924E+03
 -0.90311330E+02 -0.79799014E+02 -0.69432302E+02 -0.59341588E+02 -0.49656389E+02
 -0.40504018E+02 -0.32008287E+02 -0.24288233E+02 -0.17456900E+02 -0.11620158E+02
 -0.68758220E+01 -0.33125398E+01 -0.10040807E+01 -0.43583489E-01  0.00000000E+00
 Non local Part
           1           2   1.02776980335195     
   3.74036184108789        5.14825221701695        5.14825221701695     
   7.10188250728847     
 Reciprocal Space Part
  0.00000000E+00  0.47959264E+01  0.94787973E+01  0.13937909E+02  0.18067209E+02
  0.21767493E+02  0.24948455E+02  0.27530537E+02  0.29446547E+02  0.30643011E+02
  0.31081218E+02  0.30737954E+02  0.29605902E+02  0.27693699E+02  0.25025657E+02
  0.21641152E+02  0.17593707E+02  0.12949777E+02  0.77872811E+01  0.21939027E+01
 -0.37347864E+01 -0.98973503E+01 -0.16188605E+02 -0.22501782E+02 -0.28730692E+02
 -0.34771839E+02 -0.40526441E+02 -0.45902318E+02 -0.50815597E+02 -0.55192219E+02
 -0.58969196E+02 -0.62095618E+02 -0.64533382E+02 -0.66257625E+02 -0.67256885E+02
 -0.67532961E+02 -0.67100507E+02 -0.65986370E+02 -0.64228681E+02 -0.61875747E+02
 -0.58984758E+02 -0.55620351E+02 -0.51853065E+02 -0.47757725E+02 -0.43411792E+02
 -0.38893727E+02 -0.34281383E+02 -0.29650482E+02 -0.25073205E+02 -0.20616902E+02
 -0.16342975E+02 -0.12305935E+02 -0.85526466E+01 -0.51217825E+01 -0.20434739E+01
  0.66082777E+00  0.29782950E+01  0.49044792E+01  0.64428929E+01  0.76044369E+01
  0.84066933E+01  0.88731076E+01  0.90320849E+01  0.89160266E+01  0.85603325E+01
  0.80023954E+01  0.72806116E+01  0.64334317E+01  0.54984714E+01  0.45117002E+01
  0.35067261E+01  0.25141842E+01  0.15612421E+01  0.67122480E+00 -0.13663774E+00
 -0.84734199E+00 -0.14501253E+01 -0.19383709E+01 -0.23094127E+01 -0.25642521E+01
 -0.27071992E+01 -0.27454544E+01 -0.26886445E+01 -0.25483289E+01 -0.23374927E+01
 -0.20700399E+01 -0.17603015E+01 -0.14225710E+01 -0.10706787E+01 -0.71761309E+00
 -0.37519810E+00 -0.53830206E-01  0.23772056E+00  0.49244481E+00  0.70516389E+00
  0.87253852E+00  0.99302011E+00  0.10667505E+01  0.10954167E+01  0.10820686E+01
 Real Space Part
  0.00000000E+00 -0.14773620E+02 -0.29504012E+02 -0.44148064E+02 -0.58662887E+02
 -0.73005935E+02 -0.87135112E+02 -0.10100889E+03 -0.11458641E+03 -0.12782761E+03
 -0.14069331E+03 -0.15314536E+03 -0.16514671E+03 -0.17666152E+03 -0.18765531E+03
 -0.19809499E+03 -0.20794905E+03 -0.21718757E+03 -0.22578241E+03 -0.23370722E+03
 -0.24093761E+03 -0.24745120E+03 -0.25322772E+03 -0.25824911E+03 -0.26249959E+03
 -0.26596575E+03 -0.26863664E+03 -0.27050382E+03 -0.27156148E+03 -0.27180644E+03
 -0.27123829E+03 -0.26985939E+03 -0.26767496E+03 -0.26469312E+03 -0.26092494E+03
 -0.25638446E+03 -0.25108873E+03 -0.24505784E+03 -0.23831492E+03 -0.23088616E+03
 -0.22280077E+03 -0.21409102E+03 -0.20479213E+03 -0.19494231E+03 -0.18458264E+03
 -0.17375701E+03 -0.16251204E+03 -0.15089695E+03 -0.13896343E+03 -0.12676550E+03
 -0.11435932E+03 -0.10180298E+03 -0.89156272E+02 -0.76480457E+02 -0.63837951E+02
 -0.51292020E+02 -0.38906444E+02 -0.26745131E+02 -0.14871719E+02 -0.33491466E+01
  0.77608153E+01  0.18398045E+02  0.28504584E+02  0.38025162E+02  0.46907750E+02
  0.55104110E+02  0.62570366E+02  0.69267555E+02  0.75162185E+02  0.80226765E+02
  0.84440309E+02  0.87788809E+02  0.90265653E+02  0.91871984E+02  0.92616996E+02
  0.92518158E+02  0.91601327E+02  0.89900771E+02  0.87459124E+02  0.84327150E+02
  0.80563474E+02  0.76234154E+02  0.71412113E+02  0.66176534E+02  0.60612039E+02
  0.54807883E+02  0.48856943E+02  0.42854743E+02  0.36898318E+02  0.31085109E+02
  0.25511797E+02  0.20273132E+02  0.15460800E+02  0.11162301E+02  0.74598806E+01
  0.44296287E+01  0.21405098E+01  0.65103605E+00  0.24478301E-01  0.00000000E+00
 Reciprocal Space Part
  0.00000000E+00 -0.32959993E+01 -0.65108327E+01 -0.95650392E+01 -0.12382530E+02
 -0.14892180E+02 -0.17029313E+02 -0.18737042E+02 -0.19967441E+02 -0.20682518E+02
 -0.20854973E+02 -0.20468725E+02 -0.19519194E+02 -0.18013337E+02 -0.15969442E+02
 -0.13416673E+02 -0.10394401E+02 -0.69513115E+01 -0.31443350E+01  0.96259400E+00
  0.52999060E+01  0.97938701E+01  0.14368135E+02  0.18945301E+02  0.23448498E+02
  0.27802913E+02  0.31937265E+02  0.35785167E+02  0.39286363E+02  0.42387814E+02
  0.45044611E+02  0.47220688E+02  0.48889347E+02  0.50033563E+02  0.50646085E+02
  0.50729324E+02  0.50295045E+02  0.49363869E+02  0.47964603E+02  0.46133420E+02
  0.43912906E+02  0.41351006E+02  0.38499885E+02  0.35414752E+02  0.32152643E+02
  0.28771228E+02  0.25327640E+02  0.21877359E+02  0.18473184E+02  0.15164300E+02
  0.11995462E+02  0.90063155E+01  0.62308486E+01  0.36970026E+01  0.14264260E+01
 -0.56561927E+00 -0.22702077E+01 -0.36845619E+01 -0.48117386E+01 -0.56602014E+01
 -0.62432953E+01 -0.65786419E+01 -0.66874712E+01 -0.65939116E+01 -0.63242545E+01
 -0.59062152E+01 -0.53682061E+01 -0.47386395E+01 -0.40452758E+01 -0.33146305E+01
 -0.25714498E+01 -0.18382658E+01 -0.11350353E+01 -0.47886880E+00  0.11615214E+00
  0.63906713E+00  0.10820441E+01  0.14403059E+01  0.17119835E+01  0.18979047E+01
  0.20013281E+01  0.20276324E+01  0.19839743E+01  0.18789235E+01  0.17220886E+01
  0.15237444E+01  0.12944694E+01  0.10448044E+01  0.78493958E+00  0.52443680E+00
  0.27199295E+00  0.35247562E-01 -0.17936245E+00 -0.36670036E+00 -0.52298000E+00
 -0.64577090E+00 -0.73396136E+00 -0.78768363E+00 -0.80820610E+00 -0.79779839E+00
 Real Space Part
  0.00000000E+00  0.11109148E+02  0.22186010E+02  0.33198385E+02  0.44114240E+02
  0.54901797E+02  0.65529612E+02  0.75966664E+02  0.86182436E+02  0.96146995E+02
  0.10583108E+03  0.11520617E+03  0.12424460E+03  0.13291958E+03  0.14120534E+03
  0.14907715E+03  0.15651144E+03  0.16348586E+03  0.16997934E+03  0.17597218E+03
  0.18144613E+03  0.18638442E+03  0.19077187E+03  0.19459495E+03  0.19784180E+03
  0.20050236E+03  0.20256837E+03  0.20403347E+03  0.20489322E+03  0.20514518E+03
  0.20478894E+03  0.20382617E+03  0.20226066E+03  0.20009836E+03  0.19734742E+03
  0.19401819E+03  0.19012329E+03  0.18567756E+03  0.18069815E+03  0.17520444E+03
  0.16921810E+03  0.16276304E+03  0.15586542E+03  0.14855357E+03  0.14085798E+03
  0.13281125E+03  0.12444800E+03  0.11580478E+03  0.10691999E+03  0.97833780E+02
  0.88587875E+02  0.79225461E+02  0.69790995E+02  0.60330026E+02  0.50888978E+02
  0.41514918E+02  0.32255306E+02  0.23157711E+02  0.14269515E+02  0.56375941E+01
 -0.26920256E+01 -0.10674528E+02 -0.18266685E+02 -0.25427249E+02 -0.32117361E+02
 -0.38300959E+02 -0.43945199E+02 -0.49020872E+02 -0.53502807E+02 -0.57370273E+02
 -0.60607351E+02 -0.63203287E+02 -0.65152801E+02 -0.66456355E+02 -0.67120379E+02
 -0.67157432E+02 -0.66586292E+02 -0.65431977E+02 -0.63725709E+02 -0.61504748E+02
 -0.58812189E+02 -0.55696653E+02 -0.52211866E+02 -0.48416215E+02 -0.44372138E+02
 -0.40145538E+02 -0.35805024E+02 -0.31421203E+02 -0.27065831E+02 -0.22811001E+02
 -0.18728276E+02 -0.14887826E+02 -0.11357585E+02 -0.82024251E+01 -0.54833584E+01
 -0.32568727E+01 -0.15742093E+01 -0.47891348E+00 -0.17998452E-01  0.00000000E+00
 PAW radial sets
         375  0.969806103663617     
(5E20.12)                                
 augmentation charges (non sperical)
 -0.318674216239E+00 -0.366431816410E+00 -0.142540383087E+00 -0.194025298181E+00 -0.366431816410E+00
 -0.421360529380E+00 -0.163523735130E+00 -0.222613464736E+00 -0.142540383087E+00 -0.163523735130E+00
 -0.518289995658E-01 -0.693499238774E-01 -0.194025298181E+00 -0.222613464736E+00 -0.693499238774E-01
 -0.927982218667E-01
 uccopancies in atom
  0.200000000063E+01  0.000000000000E+00  0.000000000000E+00  0.000000000000E+00  0.000000000000E+00
  0.000000000000E+00  0.000000000000E+00  0.000000000000E+00  0.000000000000E+00  0.000000000000E+00
  0.133333333263E+01  0.000000000000E+00  0.000000000000E+00  0.000000000000E+00  0.000000000000E+00
  0.000000000000E+00
 grid
  0.369236193613E-04  0.381242833498E-04  0.393639899359E-04  0.406440086874E-04  0.419656504555E-04
  0.433302687169E-04  0.447392609597E-04  0.461940701153E-04  0.476961860354E-04  0.492471470178E-04
  0.508485413822E-04  0.525020090964E-04  0.542092434557E-04  0.559719928174E-04  0.577920623907E-04
  0.596713160861E-04  0.616116784235E-04  0.636151365035E-04  0.656837420423E-04  0.678196134726E-04
  0.700249381135E-04  0.723019744101E-04  0.746530542465E-04  0.770805853340E-04  0.795870536765E-04
  0.821750261167E-04  0.848471529644E-04  0.876061707110E-04  0.904549048319E-04  0.933962726796E-04
  0.964332864719E-04  0.995690563764E-04  0.102806793695E-03  0.106149814155E-03  0.109601541300E-03
  0.113165510000E-03  0.116845370072E-03  0.120644890013E-03  0.124567960864E-03  0.128618600193E-03
  0.132800956207E-03  0.137119312005E-03  0.141578089960E-03  0.146181856252E-03  0.150935325538E-03
  0.155843365787E-03  0.160911003260E-03  0.166143427663E-03  0.171545997453E-03  0.177124245335E-03
  0.182883883923E-03  0.188830811588E-03  0.194971118506E-03  0.201311092886E-03  0.207857227417E-03
  0.214616225912E-03  0.221595010177E-03  0.228800727096E-03  0.236240755953E-03  0.243922715988E-03
  0.251854474199E-03  0.260044153400E-03  0.268500140538E-03  0.277231095282E-03  0.286245958894E-03
  0.295553963381E-03  0.305164640953E-03  0.315087833784E-03  0.325333704091E-03  0.335912744540E-03
  0.346835788992E-03  0.358114023601E-03  0.369758998263E-03  0.381782638451E-03  0.394197257422E-03
  0.407015568831E-03  0.420250699750E-03  0.433916204109E-03  0.448026076578E-03  0.462594766900E-03
  0.477637194687E-03  0.493168764699E-03  0.509205382621E-03  0.525763471352E-03  0.542859987821E-03
  0.560512440355E-03  0.578738906608E-03  0.597558052073E-03  0.616989149202E-03  0.637052097134E-03
  0.657767442082E-03  0.679156398370E-03  0.701240870157E-03  0.724043473872E-03  0.747587561375E-03
  0.771897243868E-03  0.796997416591E-03  0.822913784313E-03  0.849672887660E-03  0.877302130292E-03
  0.905829806968E-03  0.935285132521E-03  0.965698271780E-03  0.997100370456E-03  0.102952358704E-02
  0.106300112575E-02  0.109756727049E-02  0.113325742003E-02  0.117010812420E-02  0.120815712134E-02
  0.124744337694E-02  0.128800712357E-02  0.132988990204E-02  0.137313460398E-02  0.141778551575E-02
  0.146388836378E-02  0.151149036142E-02  0.156064025727E-02  0.161138838511E-02  0.166378671547E-02
  0.171788890882E-02  0.177375037053E-02  0.183142830761E-02  0.189098178732E-02  0.195247179762E-02
  0.201596130966E-02  0.208151534224E-02  0.214920102842E-02  0.221908768426E-02  0.229124687981E-02
  0.236575251238E-02  0.244268088225E-02  0.252211077080E-02  0.260412352117E-02  0.268880312158E-02
  0.277623629135E-02  0.286651256969E-02  0.295972440738E-02  0.305596726150E-02  0.315533969313E-02
  0.325794346835E-02  0.336388366236E-02  0.347326876720E-02  0.358621080276E-02  0.370282543157E-02
  0.382323207718E-02  0.394755404653E-02  0.407591865618E-02  0.420845736271E-02  0.434530589733E-02
  0.448660440490E-02  0.463249758743E-02  0.478313485231E-02  0.493867046524E-02  0.509926370830E-02
  0.526507904298E-02  0.543628627870E-02  0.561306074660E-02  0.579558347921E-02  0.598404139574E-02
  0.617862749357E-02  0.637954104587E-02  0.658698780568E-02  0.680118021659E-02  0.702233763037E-02
  0.725068653152E-02  0.748646076927E-02  0.772990179705E-02  0.798125891975E-02  0.824078954901E-02
  0.850875946689E-02  0.878544309799E-02  0.907112379054E-02  0.936609410652E-02  0.967065612132E-02
  0.998512173305E-02  0.103098129820E-01  0.106450623803E-01  0.109912132527E-01  0.113486200880E-01
  0.117176489019E-01  0.120986776122E-01  0.124920964257E-01  0.128983082375E-01  0.133177290440E-01
  0.137507883689E-01  0.141979297026E-01  0.146596109570E-01  0.151363049341E-01  0.156284998101E-01
  0.161366996356E-01  0.166614248516E-01  0.172032128226E-01  0.177626183868E-01  0.183402144244E-01
  0.189365924443E-01  0.195523631895E-01  0.201881572633E-01  0.208446257742E-01  0.215224410034E-01
  0.222222970929E-01  0.229449107565E-01  0.236910220137E-01  0.244613949478E-01  0.252568184877E-01
  0.260781072169E-01  0.269261022067E-01  0.278016718780E-01  0.287057128908E-01  0.296391510620E-01
  0.306029423139E-01  0.315980736530E-01  0.326255641806E-01  0.336864661369E-01  0.347818659783E-01
  0.359128854897E-01  0.370806829342E-01  0.382864542382E-01  0.395314342170E-01  0.408168978389E-01
  0.421441615309E-01  0.435145845270E-01  0.449295702603E-01  0.463905677995E-01  0.478990733341E-01
  0.494566317053E-01  0.510648379892E-01  0.527253391294E-01  0.544398356243E-01  0.562100832680E-01
  0.580378949488E-01  0.599251425057E-01  0.618737586451E-01  0.638857389201E-01  0.659631437743E-01
  0.681081006519E-01  0.703228061762E-01  0.726095283991E-01  0.749706091240E-01  0.774084663040E-01
  0.799255965177E-01  0.825245775264E-01  0.852080709140E-01  0.879788248119E-01  0.908396767145E-01
  0.937935563840E-01  0.968434888513E-01  0.999925975138E-01  0.103244107334E+00  0.106601348142E+00
  0.110067758046E+00  0.113646886952E+00  0.117342400201E+00  0.121158082322E+00  0.125097840907E+00
  0.129165710612E+00  0.133365857292E+00  0.137702582264E+00  0.142180326714E+00  0.146803676242E+00
  0.151577365563E+00  0.156506283352E+00  0.161595477251E+00  0.166850159040E+00  0.172275709971E+00
  0.177877686284E+00  0.183661824892E+00  0.189634049257E+00  0.195800475460E+00  0.202167418459E+00
  0.208741398561E+00  0.215529148097E+00  0.222537618313E+00  0.229773986497E+00  0.237245663322E+00
  0.244960300438E+00  0.252925798307E+00  0.261150314295E+00  0.269642271026E+00  0.278410365004E+00
  0.287463575525E+00  0.296811173867E+00  0.306462732788E+00  0.316428136328E+00  0.326717589929E+00
  0.337341630893E+00  0.348311139165E+00  0.359637348481E+00  0.371331857868E+00  0.383406643526E+00
  0.395874071091E+00  0.408746908298E+00  0.422038338057E+00  0.435761971954E+00  0.449931864189E+00
  0.464562525969E+00  0.479668940372E+00  0.495266577685E+00  0.511371411253E+00  0.527999933831E+00
  0.545169174480E+00  0.562896716004E+00  0.581200712952E+00  0.600099910219E+00  0.619613662233E+00
  0.639761952782E+00  0.660565415476E+00  0.682045354878E+00  0.704223768324E+00  0.727123368446E+00
  0.750767606437E+00  0.775180696062E+00  0.800387638459E+00  0.826414247738E+00  0.853287177424E+00
  0.881033947742E+00  0.909682973812E+00  0.939263594739E+00  0.969806103664E+00  0.100134177878E+01
  0.103390291539E+01  0.106752285892E+01  0.110223603915E+01  0.113807800540E+01  0.117508546298E+01
  0.121329631076E+01  0.125274967998E+01  0.129348597434E+01  0.133554691138E+01  0.137897556515E+01
  0.142381641041E+01  0.147011536809E+01  0.151791985237E+01  0.156727881922E+01  0.161824281654E+01
  0.167086403591E+01  0.172519636606E+01  0.178129544805E+01  0.183921873223E+01  0.189902553711E+01
  0.196077711009E+01  0.202453669017E+01  0.209036957273E+01  0.215834317641E+01  0.222852711209E+01
  0.230099325428E+01  0.237581581464E+01  0.245307141799E+01  0.253283918084E+01  0.261520079234E+01
  0.270024059798E+01  0.278804568595E+01  0.287870597634E+01  0.297231431319E+01  0.306896655964E+01
  0.316876169602E+01  0.327180192129E+01  0.337819275762E+01  0.348804315854E+01  0.360146562045E+01
  0.371857629787E+01  0.383949512236E+01  0.396434592537E+01  0.409325656503E+01  0.422635905710E+01
  0.436378971016E+01  0.450568926521E+01  0.465220303980E+01  0.480348107682E+01  0.495967829822E+01
  0.512095466359E+01  0.528747533404E+01  0.545941084126E+01  0.563693726225E+01  0.582023639958E+01
 aepotential
  0.224582616114E+05  0.223544190646E+05  0.222109534541E+05  0.220288330229E+05  0.218094146781E+05
  0.215542019430E+05  0.212651470836E+05  0.209441434095E+05  0.205935030330E+05  0.202155686830E+05
  0.198127946722E+05  0.193878411044E+05  0.189432621271E+05  0.184817375804E+05  0.180059238210E+05
  0.175184529507E+05  0.170218449932E+05  0.165186113663E+05  0.160111158128E+05  0.155015938210E+05
  0.149921594028E+05  0.144848033554E+05  0.139813033483E+05  0.134833263185E+05  0.129923496540E+05
  0.125096891458E+05  0.120365046881E+05  0.115737891692E+05  0.111223877394E+05  0.106829992007E+05
  0.102561814750E+05  0.984236918122E+04  0.944187450461E+04  0.905490294140E+04  0.868156132149E+04
  0.832186852097E+04  0.797576539789E+04  0.764312443447E+04  0.732375897666E+04  0.701743192251E+04
  0.672386344142E+04  0.644273943381E+04  0.617371729275E+04  0.591643257351E+04  0.567050446145E+04
  0.543554074645E+04  0.521114237226E+04  0.499690623490E+04  0.479243119771E+04  0.459731580569E+04
  0.441116584915E+04  0.423359416998E+04  0.406422102063E+04  0.390267801687E+04  0.374860541199E+04
  0.360165791732E+04  0.346150037920E+04  0.332781051355E+04  0.320027922507E+04  0.307860921552E+04
  0.296251715286E+04  0.285173131282E+04  0.274599157757E+04  0.264505217145E+04  0.254867626965E+04
  0.245664112929E+04  0.236873130397E+04  0.228474714910E+04  0.220449274556E+04  0.212778613414E+04
  0.205445746675E+04  0.198433555515E+04  0.191726924706E+04  0.185310751161E+04  0.179171196744E+04
  0.173294637319E+04  0.167668743870E+04  0.162281213235E+04  0.157120921922E+04  0.152177000784E+04
  0.147439121513E+04  0.142897804432E+04  0.138543674456E+04  0.134368049331E+04  0.130362653916E+04
  0.126519642417E+04  0.122831510569E+04  0.119291245486E+04  0.115892042157E+04  0.112627573063E+04
  0.109491729446E+04  0.106478770604E+04  0.103583202109E+04  0.100799805089E+04  0.981236393900E+03
  0.955499708361E+03  0.930743379391E+03  0.906924483825E+03  0.884002460603E+03  0.861938666783E+03
  0.840696095606E+03  0.820239696410E+03  0.800536068637E+03  0.781552922370E+03  0.763260288480E+03
  0.745628812120E+03  0.728630843653E+03  0.712240005281E+03  0.696430795620E+03  0.681179309890E+03
  0.666462469975E+03  0.652258042018E+03  0.638545150035E+03  0.625303558355E+03  0.612513977096E+03
  0.600157983982E+03  0.588217866536E+03  0.576676751447E+03  0.565518401924E+03  0.554727254546E+03
  0.544288495101E+03  0.534187750938E+03  0.524411393213E+03  0.514946240367E+03  0.505779658568E+03
  0.496899536973E+03  0.488294233228E+03  0.479952546030E+03  0.471863716026E+03  0.464017378110E+03
  0.456403588141E+03  0.449012744120E+03  0.441835622538E+03  0.434863316131E+03  0.428087266090E+03
  0.421499198185E+03  0.415091142360E+03  0.408855407099E+03  0.402784560134E+03  0.396871438862E+03
  0.391109105954E+03  0.385490855254E+03  0.380010237724E+03  0.374660950796E+03  0.369436948380E+03
  0.364332342472E+03  0.359341472056E+03  0.354458779305E+03  0.349678944248E+03  0.344996782182E+03
  0.340407235135E+03  0.335905424277E+03  0.331486607996E+03  0.327146162810E+03  0.322879599404E+03
  0.318682561487E+03  0.314550795664E+03  0.310480173991E+03  0.306466669440E+03  0.302506361140E+03
  0.298595430347E+03  0.294730154072E+03  0.290906902291E+03  0.287122134879E+03  0.283372398553E+03
  0.279654326883E+03  0.275964632067E+03  0.272300107673E+03  0.268657624772E+03  0.265034129621E+03
  0.261426642495E+03  0.257832257890E+03  0.254248139858E+03  0.250671525339E+03  0.247099719855E+03
  0.243530098461E+03  0.239960107170E+03  0.236387257970E+03  0.232809136473E+03  0.229223394745E+03
  0.225627756442E+03  0.222020017216E+03  0.218398044562E+03  0.214759779768E+03  0.211103240179E+03
  0.207426519626E+03  0.203727792193E+03  0.200005313868E+03  0.196257424351E+03  0.192482552570E+03
  0.188679215786E+03  0.184846029355E+03  0.180981703072E+03  0.177085055860E+03  0.173155006834E+03
  0.169190595851E+03  0.165190975346E+03  0.161155428955E+03  0.157083368579E+03  0.152974348750E+03
  0.148828071265E+03  0.144644397185E+03  0.140423355348E+03  0.136165155596E+03  0.131870199141E+03
  0.127539095665E+03  0.123172677031E+03  0.118772014982E+03  0.114338441749E+03  0.109873569304E+03
  0.105379314949E+03  0.100857925142E+03  0.963120034373E+02  0.917445403931E+02  0.871589424277E+02
  0.825590642624E+02  0.779492376525E+02  0.733342989244E+02  0.687196113494E+02  0.641110783736E+02
  0.595151443148E+02  0.549387765535E+02  0.503894230776E+02  0.458749368207E+02  0.414034597111E+02
  0.369832569596E+02  0.326224958483E+02  0.283289648877E+02  0.241097365571E+02  0.199707893577E+02
  0.159166194813E+02  0.119499023744E+02  0.807129369114E+01  0.427950562784E+01  0.571831311462E+00
 -0.305468611876E+01 -0.660127275255E+01 -0.100645826083E+02 -0.134332264910E+02 -0.166842972594E+02
 -0.197809918165E+02 -0.226727239958E+02 -0.252989405321E+02 -0.275970053750E+02 -0.295131676630E+02
 -0.310143032654E+02 -0.320974363457E+02 -0.327942250862E+02 -0.331684612348E+02 -0.333063187673E+02
 -0.333014213572E+02 -0.332393191961E+02 -0.331864678945E+02 -0.331865985968E+02 -0.332636604584E+02
 -0.334280093386E+02 -0.336825851753E+02 -0.340272348436E+02 -0.344609435654E+02 -0.349825570793E+02
 -0.355907399910E+02 -0.362837258388E+02 -0.370591427385E+02 -0.379139910040E+02 -0.388447539766E+02
 -0.398475604606E+02 -0.409183642677E+02 -0.420530910988E+02 -0.432477367348E+02 -0.444984239967E+02
 -0.458014159526E+02 -0.471530921289E+02 -0.485499003435E+02 -0.499882801428E+02 -0.514645670080E+02
 -0.529748650751E+02 -0.545149070204E+02 -0.560798676397E+02 -0.576641662011E+02 -0.592612372839E+02
 -0.608632942800E+02 -0.624611173392E+02 -0.640439140374E+02 -0.655993263597E+02 -0.671136856798E+02
 -0.685726214375E+02 -0.699621271717E+02 -0.712701499084E+02 -0.724887089918E+02 -0.736164653102E+02
 -0.746615022762E+02 -0.756436320889E+02 -0.765943839749E+02 -0.775504776150E+02 -0.785341380356E+02
 -0.795167503408E+02 -0.803813762687E+02 -0.809309058204E+02 -0.809848485211E+02 -0.805190617613E+02
 -0.797071390466E+02 -0.787954527025E+02 -0.779444219109E+02 -0.771893397384E+02 -0.764977343901E+02
 -0.758270218216E+02 -0.751477317405E+02 -0.744449636076E+02 -0.737134003152E+02 -0.729524449789E+02
 -0.721630227330E+02 -0.713459458997E+02 -0.705013788410E+02 -0.696289047432E+02 -0.687278451668E+02
 -0.677975998939E+02 -0.668379042338E+02 -0.658489880783E+02 -0.648316404488E+02 -0.637872000016E+02
 -0.627175111457E+02 -0.616248536121E+02 -0.605118426399E+02 -0.593813475130E+02 -0.582363836067E+02
 -0.570800206782E+02 -0.559152807772E+02 -0.547450439947E+02 -0.535719579690E+02 -0.523983575470E+02
 -0.512262050831E+02 -0.500570571623E+02 -0.488920707462E+02 -0.477320515963E+02 -0.465775470395E+02
 -0.454289717238E+02 -0.442867565661E+02 -0.431514904256E+02 -0.420240432557E+02 -0.409056484073E+02
 -0.397979364418E+02 -0.387029182111E+02 -0.376229213286E+02 -0.365604879790E+02 -0.355182438545E+02
 -0.344987490102E+02 -0.335043424964E+02 -0.325369942471E+02 -0.315981792659E+02 -0.306887891857E+02
 -0.298090934988E+02 -0.289587564451E+02 -0.281369068425E+02 -0.273422493442E+02 -0.265731994166E+02
 -0.258280224530E+02 -0.251049599311E+02 -0.244023309660E+02 -0.237186039917E+02 -0.230524388733E+02
 -0.224027035576E+02 -0.217684712425E+02 -0.211490043405E+02 -0.205437308028E+02 -0.199522171818E+02
 -0.193741415380E+02 -0.188092681622E+02 -0.182574251896E+02 -0.177184855405E+02 -0.171923512016E+02
 -0.166789406120E+02 -0.161781787992E+02 -0.156899898630E+02 -0.152142914193E+02 -0.147509906477E+02
 core charge-density
  0.952520675380E-04  0.101495375248E-03  0.108147643672E-03  0.115235635011E-03  0.122787860180E-03
  0.130834692828E-03  0.139408490756E-03  0.148543725228E-03  0.158277118668E-03  0.168647791305E-03
  0.179697417332E-03  0.191470391185E-03  0.204014004613E-03  0.217378635221E-03  0.231617947218E-03
  0.246789105182E-03  0.262953001643E-03  0.280174499401E-03  0.298522689509E-03  0.318071165933E-03
  0.338898317948E-03  0.361087641421E-03  0.384728070181E-03  0.409914328749E-03  0.436747307821E-03
  0.465334463929E-03  0.495790244829E-03  0.528236542266E-03  0.562803173847E-03  0.599628395867E-03
  0.638859449077E-03  0.680653139449E-03  0.725176456192E-03  0.772607229346E-03  0.823134829469E-03
  0.876960912081E-03  0.934300209665E-03  0.995381374242E-03  0.106044787368E-02  0.112975894511E-02
  0.120359060908E-02  0.128223674811E-02  0.136601025386E-02  0.145524424705E-02  0.155029337467E-02
  0.165153518935E-02  0.175937161598E-02  0.187423051085E-02  0.199656731919E-02  0.212686683710E-02
  0.226564508427E-02  0.241345129428E-02  0.257087002977E-02  0.273852342997E-02  0.291707359869E-02
  0.310722514141E-02  0.330972786029E-02  0.352537961679E-02  0.375502937195E-02  0.399958041493E-02
  0.425999379115E-02  0.453729194181E-02  0.483256256745E-02  0.514696272878E-02  0.548172319859E-02
  0.583815307975E-02  0.621764470456E-02  0.662167883209E-02  0.705183016035E-02  0.750977317196E-02
  0.799728833200E-02  0.851626865797E-02  0.906872668391E-02  0.965680183935E-02  0.102827682678E-01
  0.109490431082E-01  0.116581952654E-01  0.124129546964E-01  0.132162222402E-01  0.140710800213E-01
  0.149808024560E-01  0.159488678961E-01  0.169789709402E-01  0.180750354507E-01  0.192412283102E-01
  0.204819739569E-01  0.218019697359E-01  0.232062021106E-01  0.246999637722E-01  0.262888716940E-01
  0.279788861739E-01  0.297763309116E-01  0.316879141687E-01  0.337207510600E-01  0.358823870270E-01
  0.381808225430E-01  0.406245391049E-01  0.432225265610E-01  0.459843118320E-01  0.489199890771E-01
  0.520402513593E-01  0.553564238661E-01  0.588804987372E-01  0.626251715536E-01  0.666038795407E-01
  0.708308415327E-01  0.753210997515E-01  0.800905634417E-01  0.851560544051E-01  0.905353544751E-01
  0.962472549616E-01  0.102311608095E+00  0.108749380494E+00  0.115582708662E+00  0.122834956528E+00
  0.130530775019E+00  0.138696163641E+00  0.147358534053E+00  0.156546775577E+00  0.166291322578E+00
  0.176624223648E+00  0.187579212471E+00  0.199191780264E+00  0.211499249621E+00  0.224540849595E+00
  0.238357791801E+00  0.252993347282E+00  0.268492923870E+00  0.284904143698E+00  0.302276920501E+00
  0.320663536266E+00  0.340118716775E+00  0.360699705487E+00  0.382466335164E+00  0.405481096573E+00
  0.429809203525E+00  0.455518653420E+00  0.482680282411E+00  0.511367814172E+00  0.541657901197E+00
  0.573630157426E+00  0.607367180921E+00  0.642954565167E+00  0.680480897469E+00  0.720037742832E+00
  0.761719611507E+00  0.805623908354E+00  0.851850861922E+00  0.900503431166E+00  0.951687187406E+00
  0.100551016915E+01  0.106208270719E+01  0.112151721727E+01  0.118392795748E+01  0.124943074745E+01
  0.131814264632E+01  0.139018158622E+01  0.146566595827E+01  0.154471414755E+01  0.162744401393E+01
  0.171397231546E+01  0.180441407091E+01  0.189888185837E+01  0.199748504693E+01  0.210032895837E+01
  0.220751395638E+01  0.231913446087E+01  0.243527788549E+01  0.255602349690E+01  0.268144119473E+01
  0.281159021223E+01  0.294651773785E+01  0.308625745949E+01  0.323082803354E+01  0.338023148264E+01
  0.353445152683E+01  0.369345185456E+01  0.385717434157E+01  0.402553722728E+01  0.419843326033E+01
  0.437572782714E+01  0.455725707922E+01  0.474282607765E+01  0.493220697550E+01  0.512513726156E+01
  0.532131809137E+01  0.552041273446E+01  0.572204516931E+01  0.592579886016E+01  0.613121575290E+01
  0.633779552915E+01  0.654499516059E+01  0.675222880701E+01  0.695886810403E+01  0.716424288631E+01
  0.736764239474E+01  0.756831701344E+01  0.776548058452E+01  0.795831334386E+01  0.814596552099E+01
  0.832756164038E+01  0.850220555740E+01  0.866898625485E+01  0.882698441871E+01  0.897527980116E+01
  0.911295936892E+01  0.923912622062E+01  0.935290924359E+01  0.945347346369E+01  0.954003102361E+01
  0.961185270735E+01  0.966827990635E+01  0.970873690302E+01  0.973274332501E+01  0.973992660083E+01
  0.973003422705E+01  0.970294563489E+01  0.965868342566E+01  0.959742372685E+01  0.951950540637E+01
  0.942543787207E+01  0.931590717778E+01  0.919178015689E+01  0.905410630983E+01  0.890411718547E+01
  0.874322301647E+01  0.857300639819E+01  0.839521283758E+01  0.821173804549E+01  0.802461190048E+01
  0.783597907478E+01  0.764807638424E+01  0.746320699841E+01  0.728371172852E+01  0.711193769069E+01
  0.695020472087E+01  0.680076999367E+01  0.666579136221E+01  0.654728997864E+01  0.644711281230E+01
  0.636689569456E+01  0.630802754951E+01  0.627161649666E+01  0.625845855211E+01  0.626900970839E+01
  0.630336223502E+01  0.636122608752E+01  0.644191632449E+01  0.654434738695E+01  0.666703493854E+01
  0.680810572282E+01  0.696531552377E+01  0.713607497487E+01  0.731748269541E+01  0.750636512035E+01
  0.769932239773E+01  0.789277970662E+01  0.808304330462E+01  0.826636046642E+01  0.843898231019E+01
  0.859722834552E+01  0.873755143959E+01  0.885660182630E+01  0.895128875366E+01  0.901883837902E+01
  0.905684659916E+01  0.906332557937E+01  0.903674288454E+01  0.897605226418E+01  0.888071531075E+01
  0.875071340594E+01  0.858654958006E+01  0.838924011528E+01  0.816029596237E+01  0.790169425223E+01
  0.761584042497E+01  0.730552169249E+01  0.697385279965E+01  0.662421518513E+01  0.626019087854E+01
  0.588549258925E+01  0.550389158683E+01  0.511914509225E+01  0.473492498174E+01  0.435474965403E+01
  0.398192094344E+01  0.361946791592E+01  0.327009925296E+01  0.293616573393E+01  0.261963396522E+01
  0.232207202659E+01  0.204464711022E+01  0.178813444967E+01  0.155293593541E+01  0.133910555972E+01
  0.114637765858E+01  0.974193841797E+00  0.821727647569E+00  0.687912724293E+00  0.571485217399E+00
  0.471045210894E+00  0.385126827011E+00  0.312258106794E+00  0.251000602521E+00  0.199972785647E+00
  0.157865759705E+00  0.123455930712E+00  0.956153487165E-01  0.733191047525E-01  0.556493202710E-01
  0.417957280579E-01  0.310531920936E-01  0.228166988917E-01  0.165744191197E-01  0.118994327240E-01
  0.844066552228E-02  0.591351866446E-02  0.409059454910E-02  0.279283981966E-02  0.188134271661E-02
  0.124994262604E-02  0.818737891334E-03  0.528516695678E-03  0.336086825445E-03  0.210443915841E-03
  0.129693847222E-03  0.786319464219E-04  0.468776827368E-04  0.274665137437E-04  0.158083277264E-04
  0.893263778204E-05  0.495271047820E-05  0.269293031332E-05  0.143505043571E-05  0.749033467398E-06
  0.382692875567E-06  0.191261832230E-06  0.934412899516E-07  0.445938772776E-07  0.207739784326E-07
  0.943935533048E-08  0.418023429782E-08  0.180276191690E-08  0.756458414024E-09  0.308570986603E-09
  0.122249546275E-09  0.469942030956E-10  0.175110668187E-10  0.631832866333E-11  0.220519387662E-11
  0.743641798892E-12  0.242021979575E-12  0.759286462879E-13  0.229343586167E-13  0.666119821145E-14
  0.185798406294E-14  0.497025389829E-15  0.127341159318E-15  0.312034280306E-16  0.730215436008E-17
  0.162955212106E-17  0.346248560048E-18  0.699396982111E-19  0.134081200548E-19  0.243551295308E-20
  0.418444894401E-21  0.678787865824E-22  0.103770854694E-22  0.149222291174E-23  0.201443561509E-24
  0.254771475340E-25  0.301240429432E-26  0.332275305256E-27  0.341139112902E-28  0.325242934553E-29
 kinetic energy-density
  0.170443712255E+02  0.171959526806E+02  0.173532146010E+02  0.175164534792E+02  0.176858577678E+02
  0.178616640769E+02  0.180441134562E+02  0.182334473720E+02  0.184299468889E+02  0.186338781649E+02
  0.188455518953E+02  0.190652737518E+02  0.192933760747E+02  0.195302069050E+02  0.197761422111E+02
  0.200315597611E+02  0.202968786716E+02  0.205725301864E+02  0.208589655714E+02  0.211566644077E+02
  0.214661397635E+02  0.217879146971E+02  0.221225547325E+02  0.224706481326E+02  0.228328139396E+02
  0.232097074934E+02  0.236020130549E+02  0.240104545801E+02  0.244357925504E+02  0.248788253848E+02
  0.253403961394E+02  0.258213903479E+02  0.263227394971E+02  0.268454253266E+02  0.273904802941E+02
  0.279589921474E+02  0.285521060971E+02  0.291710284698E+02  0.298170299540E+02  0.304914503708E+02
  0.311957003918E+02  0.319312677620E+02  0.326997212893E+02  0.335027156853E+02  0.343419955550E+02
  0.352194018501E+02  0.361368777335E+02  0.370964718568E+02  0.381003497377E+02  0.391507970514E+02
  0.402502256229E+02  0.414011830763E+02  0.426063635126E+02  0.438686095712E+02  0.451909277775E+02
  0.465764918310E+02  0.480286615703E+02  0.495509832775E+02  0.511472110604E+02  0.528213096739E+02
  0.545774749995E+02  0.564201457090E+02  0.583540116767E+02  0.603840394830E+02  0.625154788176E+02
  0.647538887983E+02  0.671051471637E+02  0.695754756398E+02  0.721714645888E+02  0.749000657176E+02
  0.777686752521E+02  0.807850809130E+02  0.839575608630E+02  0.872948468621E+02  0.908062141656E+02
  0.945014497876E+02  0.983909476526E+02  0.102485678586E+03  0.106797282660E+03  0.111338073263E+03
  0.116121082025E+03  0.121160114330E+03  0.126469785718E+03  0.132065563239E+03  0.137963824945E+03
  0.144181909152E+03  0.150738167156E+03  0.157652031354E+03  0.164944064906E+03  0.172636035247E+03
  0.180750980383E+03  0.189313282203E+03  0.198348744647E+03  0.207884665914E+03  0.217949936792E+03
  0.228575115933E+03  0.239792533996E+03  0.251636386576E+03  0.264142838225E+03  0.277350131708E+03
  0.291298704858E+03  0.306031300406E+03  0.321593109874E+03  0.338031873659E+03  0.355398057778E+03
  0.373744954155E+03  0.393128878129E+03  0.413609283072E+03  0.435248934242E+03  0.458114102325E+03
  0.482274711562E+03  0.507804535859E+03  0.534781391905E+03  0.563287328000E+03  0.593408855474E+03
  0.625237112630E+03  0.658868145433E+03  0.694403084744E+03  0.731948407206E+03  0.771616166926E+03
  0.813524241242E+03  0.857796588243E+03  0.904563501892E+03  0.953961873783E+03  0.100613546878E+04
  0.106123517735E+04  0.111941931289E+04  0.118085386672E+04  0.124571280382E+04  0.131417830816E+04
  0.138644108863E+04  0.146270062008E+04  0.154316542085E+04  0.162805329646E+04  0.171759159014E+04
  0.181201740873E+04  0.191157783219E+04  0.201653011567E+04  0.212714185202E+04  0.224369111662E+04
  0.236646658731E+04  0.249576760271E+04  0.263190422492E+04  0.277519719313E+04  0.292597790174E+04
  0.308458821620E+04  0.325138037232E+04  0.342671662644E+04  0.361096896398E+04  0.380451866417E+04
  0.400775577389E+04  0.422107842291E+04  0.444489215387E+04  0.467960898522E+04  0.492564641175E+04
  0.518342622670E+04  0.545337323689E+04  0.573591370794E+04  0.603147374661E+04  0.634047737217E+04
  0.666334448476E+04  0.700048851957E+04  0.735231396827E+04  0.771921356321E+04  0.810156527709E+04
  0.849972905431E+04  0.891404322157E+04  0.934482070386E+04  0.979234486794E+04  0.102568651646E+05
  0.107385924174E+05  0.112376938587E+05  0.117542878913E+05  0.122884385354E+05  0.128401496708E+05
  0.134093589906E+05  0.139959317389E+05  0.145996542709E+05  0.152202274331E+05  0.158572598208E+05
  0.165102609523E+05  0.171786344336E+05  0.178616711371E+05  0.185585425146E+05  0.192682940582E+05
  0.199898390634E+05  0.207219527413E+05  0.214632667968E+05  0.222122646003E+05  0.229672771086E+05
  0.237264794301E+05  0.244878886685E+05  0.252493625712E+05  0.260085996210E+05  0.267631404708E+05
  0.275103708900E+05  0.282475264679E+05  0.289716991590E+05  0.296798457821E+05  0.303687985746E+05
  0.310352781564E+05  0.316759085093E+05  0.322872347092E+05  0.328657427367E+05  0.334078820558E+05
  0.339100904126E+05  0.343688211714E+05  0.347805728479E+05  0.351419208425E+05  0.354495510972E+05
  0.357002954607E+05  0.358911684689E+05  0.360194050781E+05  0.360824991397E+05  0.360782418449E+05
  0.360047598798E+05  0.358605525534E+05  0.356445272346E+05  0.353560325877E+05  0.349948887026E+05
  0.345614135525E+05  0.340564449343E+05  0.334813572423E+05  0.328380723456E+05  0.321290638614E+05
  0.313573543707E+05  0.305265048800E+05  0.296405963503E+05  0.287042028884E+05  0.277223566150E+05
  0.267005043332E+05  0.256444563005E+05  0.245603277692E+05  0.234544740581E+05  0.223334203127E+05
  0.212037872847E+05  0.200722140363E+05  0.189452803624E+05  0.178294283772E+05  0.167308857541E+05
  0.156555906232E+05  0.146091186426E+05  0.135966126406E+05  0.126227157460E+05  0.116915098789E+05
  0.108064624639E+05  0.997038477567E+04  0.918540506283E+04  0.845295844878E+04  0.777379407981E+04
  0.714799827441E+04  0.657503110146E+04  0.605377307106E+04  0.558257886643E+04  0.515933572780E+04
  0.478152525676E+04  0.444628783179E+04  0.415048909912E+04  0.389078765046E+04  0.366370294860E+04
  0.346568214147E+04  0.329316448224E+04  0.314264209103E+04  0.301071575752E+04  0.289414485339E+04
  0.278989045550E+04  0.269515123228E+04  0.260739150870E+04  0.252436175628E+04  0.244411134917E+04
  0.236499409225E+04  0.228566700366E+04  0.220508291628E+04  0.212247776791E+04  0.203735317554E+04
  0.194945535435E+04  0.185875100882E+04  0.176540103825E+04  0.166973293329E+04  0.157221233292E+04
  0.147341452072E+04  0.137399629810E+04  0.127466873830E+04  0.117617103313E+04  0.107924586030E+04
  0.984616429631E+03  0.892965337536E+03  0.804915763764E+03  0.721015106799E+03  0.641721666013E+03
  0.567394877249E+03  0.498289667452E+03  0.434555676949E+03  0.376242313197E+03  0.323310859583E+03
  0.275653876646E+03  0.233118079615E+03  0.195520082618E+03  0.162642777810E+03  0.134214112759E+03
  0.109891499212E+03  0.892751302052E+02  0.719447435254E+02  0.574934391127E+02  0.455437468883E+02
  0.357506194080E+02  0.278002931909E+02  0.214092165769E+02  0.163235576148E+02  0.123187720143E+02
  0.919880949710E+01  0.679480658835E+01  0.496329694537E+01  0.358405468907E+01  0.255770897660E+01
  0.180325936930E+01  0.125560116891E+01  0.863146917673E+00  0.585608111307E+00  0.391980940279E+00
  0.258761855591E+00  0.168403121695E+00  0.108005615820E+00  0.682361669740E-01  0.424496586999E-01
  0.259918487821E-01  0.156569798204E-01  0.927434026716E-02  0.539945763282E-02  0.308807883728E-02
  0.173407457085E-02  0.955540668826E-03  0.516397674822E-03  0.273536695348E-03  0.141930759745E-03
  0.720927102518E-04  0.358240868513E-04  0.174033737863E-04  0.825965683653E-05  0.382689001530E-05
  0.172965411311E-05  0.762015003234E-06  0.326969470700E-06  0.136528874742E-06  0.554286629432E-07
  0.218594738965E-07  0.836616392117E-08  0.310429464282E-08  0.111557875823E-08  0.387856749165E-09
  0.130314216607E-09  0.422629560805E-10  0.132146940649E-10  0.397876928427E-11  0.115208381319E-11
  0.320402997379E-12  0.854680795393E-13  0.218377479543E-13  0.533695337420E-14  0.124574335822E-14
  0.277308611767E-15  0.587799035563E-16  0.118450370340E-16  0.226556481327E-17  0.410598812016E-18
  0.703891531288E-19  0.113936388465E-19  0.173813966835E-20  0.249426902751E-21  0.336033224746E-22
  0.424147930066E-23  0.500536300095E-24  0.551053487774E-25  0.564699854251E-26  0.537404178147E-27
 mkinetic energy-density pseudized
  0.151092076267E-05  0.161078113943E-05  0.171724152793E-05  0.183073813875E-05  0.195173601270E-05
  0.208073092622E-05  0.221825142283E-05  0.236486097874E-05  0.252116031164E-05  0.268778984213E-05
  0.286543231769E-05  0.305481561024E-05  0.325671569850E-05  0.347195984746E-05  0.370142999806E-05
  0.394606638079E-05  0.420687136823E-05  0.448491358218E-05  0.478133227218E-05  0.509734198350E-05
  0.543423753360E-05  0.579339931752E-05  0.617629896391E-05  0.658450536484E-05  0.701969110421E-05
  0.748363931098E-05  0.797825096534E-05  0.850555268776E-05  0.906770504292E-05  0.966701139231E-05
  0.103059273321E-04  0.109870707546E-04  0.117132325748E-04  0.124873881659E-04  0.133127095507E-04
  0.141925783982E-04  0.151305998802E-04  0.161306174426E-04  0.171967285538E-04  0.183333014935E-04
  0.195449932513E-04  0.208367686083E-04  0.222139204794E-04  0.236820916008E-04  0.252472976503E-04
  0.269159518960E-04  0.286948914737E-04  0.305914054015E-04  0.326132644455E-04  0.347687529600E-04
  0.370667028311E-04  0.395165296650E-04  0.421282713666E-04  0.449126292692E-04  0.478810119816E-04
  0.510455821336E-04  0.544193062108E-04  0.580160076832E-04  0.618504236451E-04  0.659382651984E-04
  0.702962818268E-04  0.749423300248E-04  0.798954464618E-04  0.851759259830E-04  0.908054047638E-04
  0.968069489619E-04  0.103205149227E-03  0.110026221457E-03  0.117298114214E-03  0.125050623242E-03
  0.133315513544E-03  0.142126649541E-03  0.151520133821E-03  0.161534455064E-03  0.172210645748E-03
  0.183592450263E-03  0.195726504155E-03  0.208662525198E-03  0.222453517112E-03  0.237155986727E-03
  0.252830175513E-03  0.269540306404E-03  0.287354846941E-03  0.306346789798E-03  0.326593951855E-03
  0.348179293032E-03  0.371191256199E-03  0.395724129543E-03  0.421878432894E-03  0.449761329568E-03
  0.479487065446E-03  0.511177437056E-03  0.544962290593E-03  0.580980053925E-03  0.619378303748E-03
  0.660314370228E-03  0.703955981600E-03  0.750481951368E-03  0.800082910912E-03  0.852962090519E-03
  0.909336152021E-03  0.969436076458E-03  0.103350811040E-02  0.110181477483E-02  0.117463594061E-02
  0.125226997516E-02  0.133503496476E-02  0.142327001774E-02  0.151733665369E-02  0.161762028454E-02
  0.172453179347E-02  0.183850921812E-02  0.196001954513E-02  0.208956062308E-02  0.222766320198E-02
  0.237489310745E-02  0.253185355852E-02  0.269918763859E-02  0.287758092970E-02  0.306776432068E-02
  0.327051700102E-02  0.348666965232E-02  0.371710785072E-02  0.396277569402E-02  0.422467966834E-02
  0.450389277033E-02  0.480155890149E-02  0.511889755282E-02  0.545720879887E-02  0.581787862153E-02
  0.620238458546E-02  0.661230188827E-02  0.704930981021E-02  0.751519858965E-02  0.801187675259E-02
  0.854137892599E-02  0.910587416682E-02  0.970767484104E-02  0.103492460884E-01  0.110332159121E-01
  0.117623859341E-01  0.125397428601E-01  0.133684707009E-01  0.142519638002E-01  0.151938407213E-01
  0.161979590501E-01  0.172684311735E-01  0.184096410992E-01  0.196262623831E-01  0.209232772388E-01
  0.223059969065E-01  0.237800833634E-01  0.253515724648E-01  0.270268986084E-01  0.288129210230E-01
  0.307169517871E-01  0.327467856921E-01  0.349107320689E-01  0.372176487084E-01  0.396769780116E-01
  0.422987855159E-01  0.450938009517E-01  0.480734619956E-01  0.512499608955E-01  0.546362941549E-01
  0.582463154747E-01  0.620947921661E-01  0.661974652578E-01  0.705711135393E-01  0.752336217936E-01
  0.802040534915E-01  0.855027282353E-01  0.911513042582E-01  0.971728663056E-01  0.103592019243E+00
  0.110434987761E+00  0.117729722561E+00  0.125506013448E+00  0.133795609754E+00  0.142632348575E+00
  0.152052291307E+00  0.162093869006E+00  0.172798037135E+00  0.184208440278E+00  0.196371587457E+00
  0.209337038700E+00  0.223157603569E+00  0.237889552387E+00  0.253592840932E+00  0.270331349449E+00
  0.288173136816E+00  0.307190710817E+00  0.327461315464E+00  0.349067236398E+00  0.372096125436E+00
  0.396641345387E+00  0.422802336324E+00  0.450685004534E+00  0.480402135457E+00  0.512073831944E+00
  0.545827979269E+00  0.581800738325E+00  0.620137068561E+00  0.660991282212E+00  0.704527631458E+00
  0.750920930193E+00  0.800357212108E+00  0.853034426859E+00  0.909163176109E+00  0.968967491229E+00
  0.103268565450E+01  0.110057106560E+01  0.117289315520E+01  0.124993834737E+01  0.133201107248E+01
  0.141943483225E+01  0.151255331828E+01  0.161173158546E+01  0.171735728129E+01  0.182984193193E+01
  0.194962228544E+01  0.207716171239E+01  0.221295166336E+01  0.235751318247E+01  0.251139847526E+01
  0.267519252851E+01  0.284951477877E+01  0.303502082496E+01  0.323240417956E+01  0.344239805107E+01
  0.366577714894E+01  0.390335950019E+01  0.415600826451E+01  0.442463353243E+01  0.471019408771E+01
  0.501369911228E+01  0.533620980785E+01  0.567884090412E+01  0.604276201879E+01  0.642919882885E+01
  0.683943400651E+01  0.727480786629E+01  0.773671866181E+01  0.822662246242E+01  0.874603252987E+01
  0.929651810479E+01  0.987970250082E+01  0.104972603913E+02  0.111509141591E+02  0.118424291652E+02
  0.125736077736E+02  0.133462819538E+02  0.141623042618E+02  0.150235369788E+02  0.159318391688E+02
  0.168890513897E+02  0.178969777730E+02  0.189573651621E+02  0.200718789787E+02  0.212420754629E+02
  0.224693699181E+02  0.237550005694E+02  0.250999876421E+02  0.265050872540E+02  0.279707397272E+02
  0.294970119375E+02  0.310835333538E+02  0.327294254670E+02  0.344332243859E+02  0.361927964756E+02
  0.380052470549E+02  0.398668223441E+02  0.417728050852E+02  0.437174045414E+02  0.456936419360E+02
  0.476932328193E+02  0.497064683708E+02  0.517220982558E+02  0.537272183735E+02  0.557071676674E+02
  0.576454391118E+02  0.595236110556E+02  0.613213062728E+02  0.630161873337E+02  0.645839982356E+02
  0.659986635731E+02  0.672324578186E+02  0.682562584289E+02  0.690398973667E+02  0.695526260611E+02
  0.697637086100E+02  0.696431568950E+02  0.691626188973E+02  0.682964274948E+02  0.670228109464E+02
  0.653252576160E+02  0.631940157564E+02  0.606276938089E+02  0.576349072264E+02  0.542358939356E+02
  0.504639921222E+02  0.463668413147E+02  0.420071316179E+02  0.374626880451E+02  0.328256399797E+02
  0.282003939966E+02  0.237001074955E+02  0.194413587689E+02  0.155367364525E+02  0.120851402731E+02
  0.915971010999E+01  0.679349730000E+01  0.496329694537E+01  0.358405468907E+01  0.255770897660E+01
  0.180325936930E+01  0.125560116891E+01  0.863146917673E+00  0.585608111307E+00  0.391980940279E+00
  0.258761855591E+00  0.168403121695E+00  0.108005615820E+00  0.682361669740E-01  0.424496586999E-01
  0.259918487821E-01  0.156569798204E-01  0.927434026716E-02  0.539945763282E-02  0.308807883728E-02
  0.173407457085E-02  0.955540668826E-03  0.516397674822E-03  0.273536695348E-03  0.141930759745E-03
  0.720927102518E-04  0.358240868513E-04  0.174033737863E-04  0.825965683653E-05  0.382689001530E-05
  0.172965411311E-05  0.762015003234E-06  0.326969470700E-06  0.136528874742E-06  0.554286629432E-07
  0.218594738965E-07  0.836616392117E-08  0.310429464282E-08  0.111557875823E-08  0.387856749165E-09
  0.130314216607E-09  0.422629560805E-10  0.132146940649E-10  0.397876928427E-11  0.115208381319E-11
  0.320402997379E-12  0.854680795393E-13  0.218377479543E-13  0.533695337420E-14  0.124574335822E-14
  0.277308611767E-15  0.587799035563E-16  0.118450370340E-16  0.226556481327E-17  0.410598812016E-18
  0.703891531288E-19  0.113936388465E-19  0.173813966835E-20  0.249426902751E-21  0.336033224746E-22
  0.424147930066E-23  0.500536300095E-24  0.551053487774E-25  0.564699854251E-26  0.537404178147E-27
 local pseudopotential core
 -0.211805222802E+03 -0.211806767269E+03 -0.211808263094E+03 -0.211809711809E+03 -0.211811114898E+03
 -0.211812473797E+03 -0.211813789899E+03 -0.211815064551E+03 -0.211816299058E+03 -0.211817494683E+03
 -0.211818652654E+03 -0.211819774154E+03 -0.211820860331E+03 -0.211821912300E+03 -0.211822931135E+03
 -0.211823917882E+03 -0.211824873550E+03 -0.211825799118E+03 -0.211826695533E+03 -0.211827563714E+03
 -0.211828404550E+03 -0.211829218901E+03 -0.211830007602E+03 -0.211830771459E+03 -0.211831511256E+03
 -0.211832227749E+03 -0.211832921673E+03 -0.211833593736E+03 -0.211834244629E+03 -0.211834875016E+03
 -0.211835485544E+03 -0.211836076837E+03 -0.211836649502E+03 -0.211837204122E+03 -0.211837741268E+03
 -0.211838261488E+03 -0.211838765315E+03 -0.211839253265E+03 -0.211839725836E+03 -0.211840183513E+03
 -0.211840626764E+03 -0.211841056042E+03 -0.211841471786E+03 -0.211841874422E+03 -0.211842264362E+03
 -0.211842642004E+03 -0.211843007735E+03 -0.211843361928E+03 -0.211843704946E+03 -0.211844037139E+03
 -0.211844358847E+03 -0.211844670397E+03 -0.211844972110E+03 -0.211845264291E+03 -0.211845547241E+03
 -0.211845821247E+03 -0.211846086590E+03 -0.211846343539E+03 -0.211846592356E+03 -0.211846833296E+03
 -0.211847066603E+03 -0.211847292515E+03 -0.211847511261E+03 -0.211847723064E+03 -0.211847928139E+03
 -0.211848126695E+03 -0.211848318931E+03 -0.211848505044E+03 -0.211848685221E+03 -0.211848859644E+03
 -0.211849028490E+03 -0.211849191928E+03 -0.211849350122E+03 -0.211849503232E+03 -0.211849651411E+03
 -0.211849794807E+03 -0.211849933562E+03 -0.211850067815E+03 -0.211850197699E+03 -0.211850323342E+03
 -0.211850444868E+03 -0.211850562395E+03 -0.211850676039E+03 -0.211850785910E+03 -0.211850892113E+03
 -0.211850994750E+03 -0.211851093920E+03 -0.211851189715E+03 -0.211851282226E+03 -0.211851371538E+03
 -0.211851457733E+03 -0.211851540890E+03 -0.211851621082E+03 -0.211851698379E+03 -0.211851772850E+03
 -0.211851844556E+03 -0.211851913557E+03 -0.211851979909E+03 -0.211852043664E+03 -0.211852104870E+03
 -0.211852163572E+03 -0.211852219810E+03 -0.211852273621E+03 -0.211852325038E+03 -0.211852374091E+03
 -0.211852420805E+03 -0.211852465201E+03 -0.211852507295E+03 -0.211852547102E+03 -0.211852584628E+03
 -0.211852619879E+03 -0.211852652853E+03 -0.211852683545E+03 -0.211852711946E+03 -0.211852738038E+03
 -0.211852761802E+03 -0.211852783212E+03 -0.211852802235E+03 -0.211852818833E+03 -0.211852832962E+03
 -0.211852844572E+03 -0.211852853604E+03 -0.211852859994E+03 -0.211852863668E+03 -0.211852864546E+03
 -0.211852862539E+03 -0.211852857550E+03 -0.211852849469E+03 -0.211852838182E+03 -0.211852823558E+03
 -0.211852805460E+03 -0.211852783737E+03 -0.211852758226E+03 -0.211852728750E+03 -0.211852695119E+03
 -0.211852657128E+03 -0.211852614556E+03 -0.211852567165E+03 -0.211852514700E+03 -0.211852456887E+03
 -0.211852393432E+03 -0.211852324018E+03 -0.211852248307E+03 -0.211852165937E+03 -0.211852076520E+03
 -0.211851979641E+03 -0.211851874854E+03 -0.211851761685E+03 -0.211851639624E+03 -0.211851508129E+03
 -0.211851366619E+03 -0.211851214473E+03 -0.211851051028E+03 -0.211850875577E+03 -0.211850687362E+03
 -0.211850485577E+03 -0.211850269360E+03 -0.211850037791E+03 -0.211849789887E+03 -0.211849524600E+03
 -0.211849240812E+03 -0.211848937330E+03 -0.211848612879E+03 -0.211848266101E+03 -0.211847895547E+03
 -0.211847499669E+03 -0.211847076819E+03 -0.211846625235E+03 -0.211846143041E+03 -0.211845628233E+03
 -0.211845078677E+03 -0.211844492094E+03 -0.211843866054E+03 -0.211843197964E+03 -0.211842485060E+03
 -0.211841724394E+03 -0.211840912820E+03 -0.211840046985E+03 -0.211839123311E+03 -0.211838137981E+03
 -0.211837086927E+03 -0.211835965806E+03 -0.211834769990E+03 -0.211833494538E+03 -0.211832134184E+03
 -0.211830683308E+03 -0.211829135917E+03 -0.211827485617E+03 -0.211825725588E+03 -0.211823848554E+03
 -0.211821846753E+03 -0.211819711905E+03 -0.211817435175E+03 -0.211815007138E+03 -0.211812417737E+03
 -0.211809656240E+03 -0.211806711199E+03 -0.211803570392E+03 -0.211800220781E+03 -0.211796648449E+03
 -0.211792838542E+03 -0.211788775207E+03 -0.211784441520E+03 -0.211779819415E+03 -0.211774889606E+03
 -0.211769631499E+03 -0.211764023107E+03 -0.211758040950E+03 -0.211751659954E+03 -0.211744853335E+03
 -0.211737592487E+03 -0.211729846851E+03 -0.211721583777E+03 -0.211712768382E+03 -0.211703363387E+03
 -0.211693328953E+03 -0.211682622500E+03 -0.211671198508E+03 -0.211659008316E+03 -0.211645999891E+03
 -0.211632117596E+03 -0.211617301926E+03 -0.211601489235E+03 -0.211584611440E+03 -0.211566595700E+03
 -0.211547364081E+03 -0.211526833183E+03 -0.211504913756E+03 -0.211481510271E+03 -0.211456520479E+03
 -0.211429834922E+03 -0.211401336422E+03 -0.211370899528E+03 -0.211338389926E+03 -0.211303663811E+03
 -0.211266567213E+03 -0.211226935286E+03 -0.211184591539E+03 -0.211139347030E+03 -0.211090999503E+03
 -0.211039332468E+03 -0.210984114236E+03 -0.210925096888E+03 -0.210862015185E+03 -0.210794585420E+03
 -0.210722504200E+03 -0.210645447165E+03 -0.210563067631E+03 -0.210474995164E+03 -0.210380834071E+03
 -0.210280161809E+03 -0.210172527302E+03 -0.210057449162E+03 -0.209934413794E+03 -0.209802873390E+03
 -0.209662243773E+03 -0.209511902094E+03 -0.209351184341E+03 -0.209179382648E+03 -0.208995742349E+03
 -0.208799458753E+03 -0.208589673592E+03 -0.208365471071E+03 -0.208125873468E+03 -0.207869836212E+03
 -0.207596242348E+03 -0.207303896298E+03 -0.206991516826E+03 -0.206657729075E+03 -0.206301055587E+03
 -0.205919906148E+03 -0.205512566352E+03 -0.205077184741E+03 -0.204611758395E+03 -0.204114116846E+03
 -0.203581904214E+03 -0.203012559473E+03 -0.202403294804E+03 -0.201751072002E+03 -0.201052577011E+03
 -0.200304192683E+03 -0.199501969981E+03 -0.198641597922E+03 -0.197718372717E+03 -0.196727166659E+03
 -0.195662397507E+03 -0.194517999254E+03 -0.193287395356E+03 -0.191963475720E+03 -0.190538578917E+03
 -0.189004481406E+03 -0.187352395807E+03 -0.185572980736E+03 -0.183656365274E+03 -0.181592191983E+03
 -0.179369683579E+03 -0.176977739969E+03 -0.174405074581E+03 -0.171640401693E+03 -0.168672689946E+03
 -0.165491501205E+03 -0.162087438284E+03 -0.158452729174E+03 -0.154581978596E+03 -0.150473118641E+03
 -0.146128587033E+03 -0.141556751636E+03 -0.136773579799E+03 -0.131804517148E+03 -0.126686488850E+03
 -0.121469865369E+03 -0.116220147717E+03 -0.111020063969E+03 -0.105987917025E+03 -0.101247258585E+03
 -0.969227910139E+02 -0.931403832798E+02 -0.900175651195E+02 -0.876442996445E+02 -0.858997342087E+02
 -0.835657792983E+02 -0.809337942412E+02 -0.783848586824E+02 -0.759162241417E+02 -0.735253512776E+02
 -0.712097830026E+02 -0.689671461544E+02 -0.667951404337E+02 -0.646915390090E+02 -0.626541885480E+02
 -0.606810001358E+02 -0.587699543057E+02 -0.569190931336E+02 -0.551265216374E+02 -0.533904052310E+02
 -0.517089619567E+02 -0.500804740076E+02 -0.485032723729E+02 -0.469757418730E+02 -0.454963182052E+02
 -0.440634863150E+02 -0.426757788664E+02 -0.413317746924E+02 -0.400300975015E+02 -0.387694142573E+02
 -0.375484339544E+02 -0.363659062385E+02 -0.352206201434E+02 -0.341114028846E+02 -0.330371185532E+02
 -0.319966670420E+02 -0.309889828723E+02 -0.300130341118E+02 -0.290678213234E+02 -0.281523765331E+02
 -0.272657622481E+02 -0.264070704958E+02 -0.255754218951E+02 -0.247699647587E+02 -0.239898742217E+02
 -0.232343513970E+02 -0.225026225585E+02 -0.217939383482E+02 -0.211075730090E+02 -0.204428236413E+02
 -0.197990094835E+02 -0.191754712136E+02 -0.185715702751E+02 -0.179866882218E+02 -0.174202260848E+02
 -0.168716037594E+02 -0.163402594099E+02 -0.158256488953E+02 -0.153272452111E+02 -0.148445379503E+02
 pspotential valence only
 -0.831461867349E+02 -0.831477312131E+02 -0.831492270497E+02 -0.831506757768E+02 -0.831520788788E+02
 -0.831534377925E+02 -0.831547539092E+02 -0.831560285768E+02 -0.831572631008E+02 -0.831584587449E+02
 -0.831596167348E+02 -0.831607382551E+02 -0.831618244549E+02 -0.831628764468E+02 -0.831638953077E+02
 -0.831648820809E+02 -0.831658377774E+02 -0.831667633757E+02 -0.831676598236E+02 -0.831685280393E+02
 -0.831693689118E+02 -0.831701833024E+02 -0.831709720446E+02 -0.831717359470E+02 -0.831724757912E+02
 -0.831731923350E+02 -0.831738863124E+02 -0.831745584340E+02 -0.831752093877E+02 -0.831758398409E+02
 -0.831764504386E+02 -0.831770418063E+02 -0.831776145498E+02 -0.831781692553E+02 -0.831787064912E+02
 -0.831792268075E+02 -0.831797307370E+02 -0.831802187959E+02 -0.831806914839E+02 -0.831811492851E+02
 -0.831815926682E+02 -0.831820220875E+02 -0.831824379826E+02 -0.831828407792E+02 -0.831832308902E+02
 -0.831836087148E+02 -0.831839746400E+02 -0.831843290406E+02 -0.831846722794E+02 -0.831850047081E+02
 -0.831853266667E+02 -0.831856384854E+02 -0.831859404832E+02 -0.831862329694E+02 -0.831865162436E+02
 -0.831867905958E+02 -0.831870563070E+02 -0.831873136492E+02 -0.831875628859E+02 -0.831878042725E+02
 -0.831880380559E+02 -0.831882644757E+02 -0.831884837636E+02 -0.831886961442E+02 -0.831889018349E+02
 -0.831891010464E+02 -0.831892939826E+02 -0.831894808411E+02 -0.831896618131E+02 -0.831898370840E+02
 -0.831900068331E+02 -0.831901712342E+02 -0.831903304557E+02 -0.831904846605E+02 -0.831906340065E+02
 -0.831907786465E+02 -0.831909187286E+02 -0.831910543960E+02 -0.831911857877E+02 -0.831913130382E+02
 -0.831914362776E+02 -0.831915556320E+02 -0.831916712236E+02 -0.831917831705E+02 -0.831918915872E+02
 -0.831919965847E+02 -0.831920982703E+02 -0.831921967479E+02 -0.831922921183E+02 -0.831923844788E+02
 -0.831924739240E+02 -0.831925605451E+02 -0.831926444305E+02 -0.831927256661E+02 -0.831928043346E+02
 -0.831928805164E+02 -0.831929542892E+02 -0.831930257281E+02 -0.831930949060E+02 -0.831931618934E+02
 -0.831932267585E+02 -0.831932895672E+02 -0.831933503835E+02 -0.831934092690E+02 -0.831934662837E+02
 -0.831935214854E+02 -0.831935749299E+02 -0.831936266715E+02 -0.831936767624E+02 -0.831937252532E+02
 -0.831937721927E+02 -0.831938176284E+02 -0.831938616058E+02 -0.831939041691E+02 -0.831939453608E+02
 -0.831939852221E+02 -0.831940237928E+02 -0.831940611110E+02 -0.831940972138E+02 -0.831941321368E+02
 -0.831941659143E+02 -0.831941985794E+02 -0.831942301638E+02 -0.831942606982E+02 -0.831942902119E+02
 -0.831943187332E+02 -0.831943462892E+02 -0.831943729058E+02 -0.831943986079E+02 -0.831944234192E+02
 -0.831944473623E+02 -0.831944704589E+02 -0.831944927295E+02 -0.831945141935E+02 -0.831945348693E+02
 -0.831945547744E+02 -0.831945739250E+02 -0.831945923364E+02 -0.831946100228E+02 -0.831946269975E+02
 -0.831946432725E+02 -0.831946588588E+02 -0.831946737665E+02 -0.831946880043E+02 -0.831947015800E+02
 -0.831947145001E+02 -0.831947267702E+02 -0.831947383943E+02 -0.831947493756E+02 -0.831947597156E+02
 -0.831947694148E+02 -0.831947784722E+02 -0.831947868854E+02 -0.831947946507E+02 -0.831948017627E+02
 -0.831948082143E+02 -0.831948139970E+02 -0.831948191004E+02 -0.831948235122E+02 -0.831948272183E+02
 -0.831948302025E+02 -0.831948324464E+02 -0.831948339293E+02 -0.831948346281E+02 -0.831948345171E+02
 -0.831948335679E+02 -0.831948317493E+02 -0.831948290266E+02 -0.831948253622E+02 -0.831948207147E+02
 -0.831948150389E+02 -0.831948082856E+02 -0.831948004011E+02 -0.831947913272E+02 -0.831947810003E+02
 -0.831947693517E+02 -0.831947563065E+02 -0.831947417836E+02 -0.831947256950E+02 -0.831947079453E+02
 -0.831946884309E+02 -0.831946670396E+02 -0.831946436498E+02 -0.831946181293E+02 -0.831945903351E+02
 -0.831945601116E+02 -0.831945272902E+02 -0.831944916876E+02 -0.831944531050E+02 -0.831944113258E+02
 -0.831943661148E+02 -0.831943172161E+02 -0.831942643508E+02 -0.831942072153E+02 -0.831941454784E+02
 -0.831940787789E+02 -0.831940067226E+02 -0.831939288785E+02 -0.831938447758E+02 -0.831937538990E+02
 -0.831936556839E+02 -0.831935495124E+02 -0.831934347064E+02 -0.831933105220E+02 -0.831931761424E+02
 -0.831930306698E+02 -0.831928731169E+02 -0.831927023975E+02 -0.831925173153E+02 -0.831923165522E+02
 -0.831920986552E+02 -0.831918620213E+02 -0.831916048814E+02 -0.831913252821E+02 -0.831910210656E+02
 -0.831906898472E+02 -0.831903289908E+02 -0.831899355813E+02 -0.831895063949E+02 -0.831890378652E+02
 -0.831885260468E+02 -0.831879665749E+02 -0.831873546205E+02 -0.831866848424E+02 -0.831859513334E+02
 -0.831851475622E+02 -0.831842663102E+02 -0.831832996027E+02 -0.831822386342E+02 -0.831810736881E+02
 -0.831797940500E+02 -0.831783879156E+02 -0.831768422910E+02 -0.831751428886E+02 -0.831732740161E+02
 -0.831712184602E+02 -0.831689573662E+02 -0.831664701128E+02 -0.831637341840E+02 -0.831607250399E+02
 -0.831574159870E+02 -0.831537780503E+02 -0.831497798496E+02 -0.831453874830E+02 -0.831405644194E+02
 -0.831352714042E+02 -0.831294663819E+02 -0.831231044385E+02 -0.831161377678E+02 -0.831085156666E+02
 -0.831001845606E+02 -0.830910880651E+02 -0.830811670844E+02 -0.830703599482E+02 -0.830586025888E+02
 -0.830458287556E+02 -0.830319702620E+02 -0.830169572612E+02 -0.830007185382E+02 -0.829831818042E+02
 -0.829642739773E+02 -0.829439214235E+02 -0.829220501305E+02 -0.828985857792E+02 -0.828734536712E+02
 -0.828465784657E+02 -0.828178836714E+02 -0.827872908333E+02 -0.827547183493E+02 -0.827200798471E+02
 -0.826832820494E+02 -0.826442220527E+02 -0.826027839506E+02 -0.825588347346E+02 -0.825122194180E+02
 -0.824627553428E+02 -0.824102256515E+02 -0.823543719371E+02 -0.822948861199E+02 -0.822314016487E+02
 -0.821634841802E+02 -0.820906219530E+02 -0.820122161455E+02 -0.819275715770E+02 -0.818358881858E+02
 -0.817362537725E+02 -0.816276385400E+02 -0.815088919666E+02 -0.813787425141E+02 -0.812358005796E+02
 -0.810785649491E+02 -0.809054327943E+02 -0.807147129840E+02 -0.805046421789E+02 -0.802734028736E+02
 -0.800191422883E+02 -0.797399908451E+02 -0.794340789385E+02 -0.790995508683E+02 -0.787345751527E+02
 -0.783373509863E+02 -0.779061112963E+02 -0.774391236218E+02 -0.769346908236E+02 -0.763911543522E+02
 -0.758069034297E+02 -0.751803940741E+02 -0.745101825399E+02 -0.737949787617E+02 -0.730337272893E+02
 -0.722257268453E+02 -0.713708069834E+02 -0.704706218677E+02 -0.695473631841E+02 -0.686154753117E+02
 -0.676817318390E+02 -0.667518183555E+02 -0.658296695482E+02 -0.649087190963E+02 -0.637995495580E+02
 -0.627176350549E+02 -0.616248536121E+02 -0.605118426399E+02 -0.593813475130E+02 -0.582363836067E+02
 -0.570800206782E+02 -0.559152807772E+02 -0.547450439947E+02 -0.535719579690E+02 -0.523983575470E+02
 -0.512262050831E+02 -0.500570571623E+02 -0.488920707462E+02 -0.477320515963E+02 -0.465775470395E+02
 -0.454289717238E+02 -0.442867565661E+02 -0.431514904256E+02 -0.420240432557E+02 -0.409056484073E+02
 -0.397979364418E+02 -0.387029182111E+02 -0.376229213286E+02 -0.365604879790E+02 -0.355182438545E+02
 -0.344987490102E+02 -0.335043424964E+02 -0.325369942471E+02 -0.315981792659E+02 -0.306887891857E+02
 -0.298090934988E+02 -0.289587564451E+02 -0.281369068425E+02 -0.273422493442E+02 -0.265731994166E+02
 -0.258280224530E+02 -0.251049599311E+02 -0.244023309660E+02 -0.237186039917E+02 -0.230524388733E+02
 -0.224027035576E+02 -0.217684712425E+02 -0.211490043405E+02 -0.205437308028E+02 -0.199522171818E+02
 -0.193741415380E+02 -0.188092681622E+02 -0.182574251896E+02 -0.177184855405E+02 -0.171923512016E+02
 -0.166789406120E+02 -0.161781787992E+02 -0.156899898630E+02 -0.152142914193E+02 -0.147509906477E+02
 core charge-density (pseudized)
  0.664368237932E-08  0.708277928095E-08  0.755089714963E-08  0.804995405063E-08  0.858199481872E-08
  0.914919943673E-08  0.975389196776E-08  0.103985500778E-07  0.110858151877E-07  0.118185032961E-07
  0.125996165179E-07  0.134323553847E-07  0.143201319591E-07  0.152665838149E-07  0.162755889421E-07
  0.173512816359E-07  0.184980694375E-07  0.197206511925E-07  0.210240363048E-07  0.224135652615E-07
  0.238949315154E-07  0.254742048132E-07  0.271578560655E-07  0.289527838608E-07  0.308663427319E-07
  0.329063732901E-07  0.350812343514E-07  0.373998371856E-07  0.398716820299E-07  0.425068970146E-07
  0.453162796619E-07  0.483113411283E-07  0.515043533697E-07  0.549083994247E-07  0.585374270208E-07
  0.624063057239E-07  0.665308878648E-07  0.709280734919E-07  0.756158796180E-07  0.806135140426E-07
  0.859414540539E-07  0.916215303321E-07  0.976770163983E-07  0.104132723975E-06  0.111015104651E-06
  0.118352358259E-06  0.126174548429E-06  0.134513725761E-06  0.143404059159E-06  0.152881975824E-06
  0.162986310520E-06  0.173758464685E-06  0.185242576078E-06  0.197485699620E-06  0.210538000202E-06
  0.224452958225E-06  0.239287588733E-06  0.255102675022E-06  0.271963017693E-06  0.289937700166E-06
  0.309100371736E-06  0.329529549346E-06  0.351308939296E-06  0.374527780221E-06  0.399281208731E-06
  0.425670649222E-06  0.453804229447E-06  0.483797223554E-06  0.515772524405E-06  0.549861147110E-06
  0.586202765840E-06  0.624946286122E-06  0.666250454953E-06  0.710284511242E-06  0.757228879234E-06
  0.807275907767E-06  0.860630658389E-06  0.917511745557E-06  0.978152232370E-06  0.104280058550E-05
  0.111172169321E-05  0.118519795074E-05  0.126353041728E-05  0.134704004954E-05  0.143606901680E-05
  0.153098210284E-05  0.163216820054E-05  0.174004190532E-05  0.185504521377E-05  0.197764933465E-05
  0.210835661951E-05  0.224770262090E-05  0.239625828667E-05  0.255463229918E-05  0.272347356923E-05
  0.290347389465E-05  0.309537079474E-05  0.329995053191E-05  0.351805133310E-05  0.375056682398E-05
  0.399844969023E-05  0.426271558062E-05  0.454444726815E-05  0.484479908613E-05  0.516500165733E-05
  0.550636693577E-05  0.587029358155E-05  0.625827269095E-05  0.667189390511E-05  0.711285192236E-05
  0.758295344090E-05  0.808412456021E-05  0.861841867152E-05  0.918802486959E-05  0.979527692035E-05
  0.104426628210E-04  0.111328349918E-04  0.118686211410E-04  0.126530358482E-04  0.134892929119E-04
  0.143808185139E-04  0.153312652529E-04  0.163445271047E-04  0.174247553716E-04  0.185763756842E-04
  0.198041061276E-04  0.211129765633E-04  0.225083492287E-04  0.239959406959E-04  0.255818452816E-04
  0.272725600024E-04  0.290750111780E-04  0.309965827917E-04  0.330451467225E-04  0.352290949735E-04
  0.375573740287E-04  0.400395214767E-04  0.426857050524E-04  0.455067642553E-04  0.485142547147E-04
  0.517204954825E-04  0.551386194460E-04  0.587826270673E-04  0.626674436675E-04  0.668089804893E-04
  0.712241997867E-04  0.759311842071E-04  0.809492107471E-04  0.862988295843E-04  0.920019481041E-04
  0.980819204644E-04  0.104563643060E-03  0.111473656278E-03  0.118840252948E-03  0.126693593941E-03
  0.135065831373E-03  0.143991239911E-03  0.153506356731E-03  0.163650130663E-03  0.174464081155E-03
  0.185992467679E-03  0.198282470262E-03  0.211384381885E-03  0.225351813494E-03  0.240241912479E-03
  0.256115595466E-03  0.273037796382E-03  0.291077730757E-03  0.310309177338E-03  0.330810778127E-03
  0.352666358034E-03  0.375965265423E-03  0.400802734878E-03  0.427280273649E-03  0.455506073271E-03
  0.485595447996E-03  0.517671301739E-03  0.551864625365E-03  0.588315026257E-03  0.627171292212E-03
  0.668591991838E-03  0.712746113776E-03  0.759813747177E-03  0.809986806041E-03  0.863469800151E-03
  0.920480655527E-03  0.981251587451E-03  0.104603002934E-02  0.111507962090E-02  0.118868125915E-02
  0.126713421622E-02  0.135075732788E-02  0.143989025717E-02  0.153489483743E-02  0.163615649962E-02
  0.174408578880E-02  0.185911997497E-02  0.198172476366E-02  0.211239611204E-02  0.225166215649E-02
  0.240008525776E-02  0.255826417020E-02  0.272683634186E-02  0.290648035218E-02  0.309791849466E-02
  0.330191951183E-02  0.351930148994E-02  0.375093492138E-02  0.399774594249E-02  0.426071975480E-02
  0.454090423774E-02  0.483941376074E-02  0.515743320269E-02  0.549622218639E-02  0.585711953542E-02
  0.624154796057E-02  0.665101898203E-02  0.708713809338E-02  0.755161017189E-02  0.804624513904E-02
  0.857296387329E-02  0.913380437581E-02  0.973092818742E-02  0.103666270529E-01  0.110433298257E-01
  0.117636096020E-01  0.125301910709E-01  0.133459580602E-01  0.142139612532E-01  0.151374260460E-01
  0.161197605057E-01  0.171645633827E-01  0.182756321200E-01  0.194569707911E-01  0.207127978848E-01
  0.220475538421E-01  0.234659082312E-01  0.249727664301E-01  0.265732756637E-01  0.282728302178E-01
  0.300770756267E-01  0.319919115992E-01  0.340234934140E-01  0.361782314789E-01  0.384627887032E-01
  0.408840752891E-01  0.434492404928E-01  0.461656608517E-01  0.490409243106E-01  0.520828096116E-01
  0.552992602393E-01  0.586983521327E-01  0.622882542917E-01  0.660771813139E-01  0.700733368046E-01
  0.742848465032E-01  0.787196798698E-01  0.833855587739E-01  0.882898518279E-01  0.934394528164E-01
  0.988406415857E-01  0.104498925689E+00  0.110418861038E+00  0.116603849781E+00  0.123055913671E+00
  0.129775441222E+00  0.136760907132E+00  0.144008562625E+00  0.151512095716E+00  0.159262260839E+00
  0.167246477865E+00  0.175448401329E+00  0.183847461666E+00  0.192418381520E+00  0.201130671717E+00
  0.209948113371E+00  0.218828234865E+00  0.227721795108E+00  0.236572287641E+00  0.245315483774E+00
  0.253879037110E+00  0.262182176454E+00  0.270135519259E+00  0.277641043293E+00  0.284592260042E+00
  0.290874639272E+00  0.296366339858E+00  0.300939307077E+00  0.304460800434E+00  0.306795418122E+00
  0.307807683341E+00  0.307365252904E+00  0.305342798310E+00  0.301626592093E+00  0.296119805925E+00
  0.288748489312E+00  0.279468146617E+00  0.268270763173E+00  0.255192046352E+00  0.240318543031E+00
  0.223794170538E+00  0.205825554851E+00  0.186685411340E+00  0.166713036699E+00  0.146310817843E+00
  0.125935522504E+00  0.106083042588E+00  0.872652497049E-01  0.699777371704E-01  0.546575187810E-01
  0.416302953499E-01  0.310477541844E-01  0.228166988917E-01  0.165744191197E-01  0.118994327240E-01
  0.844066552228E-02  0.591351866446E-02  0.409059454910E-02  0.279283981966E-02  0.188134271661E-02
  0.124994262604E-02  0.818737891334E-03  0.528516695678E-03  0.336086825445E-03  0.210443915841E-03
  0.129693847222E-03  0.786319464219E-04  0.468776827368E-04  0.274665137437E-04  0.158083277264E-04
  0.893263778204E-05  0.495271047820E-05  0.269293031332E-05  0.143505043571E-05  0.749033467398E-06
  0.382692875567E-06  0.191261832230E-06  0.934412899516E-07  0.445938772776E-07  0.207739784326E-07
  0.943935533048E-08  0.418023429782E-08  0.180276191690E-08  0.756458414024E-09  0.308570986603E-09
  0.122249546275E-09  0.469942030956E-10  0.175110668187E-10  0.631832866333E-11  0.220519387662E-11
  0.743641798892E-12  0.242021979575E-12  0.759286462879E-13  0.229343586167E-13  0.666119821145E-14
  0.185798406294E-14  0.497025389829E-15  0.127341159318E-15  0.312034280306E-16  0.730215436008E-17
  0.162955212106E-17  0.346248560048E-18  0.699396982111E-19  0.134081200548E-19  0.243551295308E-20
  0.418444894401E-21  0.678787865824E-22  0.103770854694E-22  0.149222291174E-23  0.201443561509E-24
  0.254771475340E-25  0.301240429432E-26  0.332275305256E-27  0.341139112902E-28  0.325242934553E-29
 pseudo wavefunction
  0.122874961095E-03  0.126870548278E-03  0.130996061987E-03  0.135255727108E-03  0.139653905910E-03
  0.144195102513E-03  0.148883967498E-03  0.153725302672E-03  0.158724065985E-03  0.163885376608E-03
  0.169214520173E-03  0.174716954189E-03  0.180398313627E-03  0.186264416697E-03  0.192321270798E-03
  0.198575078680E-03  0.205032244787E-03  0.211699381819E-03  0.218583317508E-03  0.225691101604E-03
  0.233030013098E-03  0.240607567675E-03  0.248431525412E-03  0.256509898725E-03  0.264850960571E-03
  0.273463252925E-03  0.282355595525E-03  0.291537094905E-03  0.301017153720E-03  0.310805480376E-03
  0.320912098972E-03  0.331347359565E-03  0.342121948772E-03  0.353246900708E-03  0.364733608293E-03
  0.376593834914E-03  0.388839726474E-03  0.401483823832E-03  0.414539075641E-03  0.428018851613E-03
  0.441936956210E-03  0.456307642778E-03  0.471145628147E-03  0.486466107701E-03  0.502284770939E-03
  0.518617817542E-03  0.535481973963E-03  0.552894510558E-03  0.570873259269E-03  0.589436631890E-03
  0.608603638915E-03  0.628393909013E-03  0.648827709127E-03  0.669925965227E-03  0.691710283743E-03
  0.714202973688E-03  0.737427069509E-03  0.761406354669E-03  0.786165386011E-03  0.811729518899E-03
  0.838124933189E-03  0.865378660035E-03  0.893518609572E-03  0.922573599501E-03  0.952573384594E-03
  0.983548687170E-03  0.101553122856E-02  0.104855376157E-02  0.108265010405E-02  0.111785517353E-02
  0.115420502293E-02  0.119173687752E-02  0.123048917305E-02  0.127050159508E-02  0.131181511962E-02
  0.135447205511E-02  0.139851608576E-02  0.144399231623E-02  0.149094731787E-02  0.153942917639E-02
  0.158948754110E-02  0.164117367576E-02  0.169454051106E-02  0.174964269884E-02  0.180653666804E-02
  0.186528068250E-02  0.192593490059E-02  0.198856143687E-02  0.205322442561E-02  0.211999008655E-02
  0.218892679265E-02  0.226010514011E-02  0.233359802068E-02  0.240948069628E-02  0.248783087605E-02
  0.256872879597E-02  0.265225730094E-02  0.273850192968E-02  0.282755100226E-02  0.291949571054E-02
  0.301443021158E-02  0.311245172397E-02  0.321366062742E-02  0.331816056554E-02  0.342605855188E-02
  0.353746507959E-02  0.365249423444E-02  0.377126381169E-02  0.389389543664E-02  0.402051468914E-02
  0.415125123217E-02  0.428623894453E-02  0.442561605791E-02  0.456952529837E-02  0.471811403243E-02
  0.487153441791E-02  0.502994355962E-02  0.519350367023E-02  0.536238223619E-02  0.553675218916E-02
  0.571679208301E-02  0.590268627645E-02  0.609462512175E-02  0.629280515940E-02  0.649742931928E-02
  0.670870712820E-02  0.692685492424E-02  0.715209607804E-02  0.738466122127E-02  0.762478848247E-02
  0.787272373059E-02  0.812872082635E-02  0.839304188182E-02  0.866595752836E-02  0.894774719326E-02
  0.923869938529E-02  0.953911198957E-02  0.984929257191E-02  0.101695586930E-01  0.105002382329E-01
  0.108416697257E-01  0.111942027052E-01  0.115581980621E-01  0.119340284117E-01  0.123220784749E-01
  0.127227454700E-01  0.131364395182E-01  0.135635840617E-01  0.140046162955E-01  0.144599876125E-01
  0.149301640640E-01  0.154156268336E-01  0.159168727275E-01  0.164344146800E-01  0.169687822751E-01
  0.175205222850E-01  0.180901992258E-01  0.186783959306E-01  0.192857141416E-01  0.199127751202E-01
  0.205602202771E-01  0.212287118221E-01  0.219189334349E-01  0.226315909563E-01  0.233674131021E-01
  0.241271521992E-01  0.249115849448E-01  0.257215131890E-01  0.265577647430E-01  0.274211942115E-01
  0.283126838512E-01  0.292331444566E-01  0.301835162725E-01  0.311647699347E-01  0.321779074403E-01
  0.332239631467E-01  0.343040048016E-01  0.354191346043E-01  0.365704902991E-01  0.377592463007E-01
  0.389866148544E-01  0.402538472299E-01  0.415622349507E-01  0.429131110588E-01  0.443078514174E-01
  0.457478760497E-01  0.472346505170E-01  0.487696873349E-01  0.503545474296E-01  0.519908416348E-01
  0.536802322282E-01  0.554244345106E-01  0.572252184265E-01  0.590844102268E-01  0.610038941739E-01
  0.629856142907E-01  0.650315761508E-01  0.671438487137E-01  0.693245662010E-01  0.715759300164E-01
  0.739002107074E-01  0.762997499681E-01  0.787769626829E-01  0.813343390096E-01  0.839744465000E-01
  0.866999322572E-01  0.895135251268E-01  0.924180379197E-01  0.954163696633E-01  0.985115078791E-01
  0.101706530880E+00  0.105004610085E+00  0.108409012346E+00  0.111923102282E+00  0.115550344605E+00
  0.119294306446E+00  0.123158659659E+00  0.127147183094E+00  0.131263764843E+00  0.135512404422E+00
  0.139897214896E+00  0.144422424924E+00  0.149092380704E+00  0.153911547803E+00  0.158884512850E+00
  0.164015985068E+00  0.169310797610E+00  0.174773908691E+00  0.180410402463E+00  0.186225489600E+00
  0.192224507567E+00  0.198412920514E+00  0.204796318756E+00  0.211380417779E+00  0.218171056722E+00
  0.225174196259E+00  0.232395915825E+00  0.239842410093E+00  0.247519984628E+00  0.255435050621E+00
  0.263594118597E+00  0.272003790992E+00  0.280670753475E+00  0.289601764878E+00  0.298803645591E+00
  0.308283264273E+00  0.318047522690E+00  0.328103338509E+00  0.338457625842E+00  0.349117273318E+00
  0.360089119458E+00  0.371379925079E+00  0.382996342484E+00  0.394944881114E+00  0.407231869376E+00
  0.419863412285E+00  0.432845344593E+00  0.446183179006E+00  0.459882049098E+00  0.473946646503E+00
  0.488381151946E+00  0.503189159653E+00  0.518373594677E+00  0.533936622639E+00  0.549879551414E+00
  0.566202724251E+00  0.582905403843E+00  0.599985646878E+00  0.617440168613E+00  0.635264197054E+00
  0.653451316392E+00  0.671993299394E+00  0.690879928558E+00  0.710098805947E+00  0.729635151783E+00
  0.749471592032E+00  0.769587935481E+00  0.789960941024E+00  0.810564076231E+00  0.831367268627E+00
  0.852336651557E+00  0.873434307009E+00  0.894618008364E+00  0.915840966686E+00  0.937051584925E+00
  0.958193225222E+00  0.979203995436E+00  0.100001656199E+01  0.102055799721E+01  0.104074967046E+01
  0.106050719343E+01  0.107974043133E+01  0.109835359247E+01  0.111624540996E+01  0.113330943004E+01
  0.114943442172E+01  0.116450492299E+01  0.117840193769E+01  0.119100379633E+01  0.120218719149E+01
  0.121182839503E+01  0.121980465892E+01  0.122599579474E+01  0.123028591740E+01  0.123256532683E+01
  0.123273248659E+01  0.123069604055E+01  0.122637678713E+01  0.121970950651E+01  0.121064450790E+01
  0.119914873445E+01  0.118520623131E+01  0.116881775189E+01  0.114999924931E+01  0.112877897872E+01
  0.110519292719E+01  0.107927829586E+01  0.105106479347E+01  0.102056356925E+01  0.987753727687E+00
  0.952594840321E+00  0.915298271815E+00  0.876202401676E+00  0.835653844256E+00  0.793997629766E+00
  0.751573320865E+00  0.708711386646E+00  0.665729862445E+00  0.622931312071E+00  0.580600103192E+00
  0.539000002752E+00  0.498372100096E+00  0.458933068872E+00  0.420873786618E+00  0.384358337773E+00
  0.349523430832E+00  0.316478259969E+00  0.285304831376E+00  0.256058759067E+00  0.228770511466E+00
  0.203447065556E+00  0.180073902676E+00  0.158617263023E+00  0.139026566782E+00  0.121236908984E+00
  0.105171542000E+00  0.907442723175E-01  0.778617149969E-01  0.664253678381E-01  0.563334857014E-01
  0.474827516011E-01  0.397697533664E-01  0.330922817212E-01  0.273504673536E-01  0.224477718310E-01
  0.182918418084E-01  0.147952299859E-01  0.118759815632E-01  0.945808267600E-02  0.747176780200E-02
  0.585368597835E-02  0.454693004842E-02  0.350093807081E-02  0.267128063291E-02  0.201935149036E-02
  0.151198135913E-02  0.112099571738E-02  0.822737212071E-03  0.597571913833E-03  0.429396487617E-03
  0.305160627581E-03  0.214416110523E-03  0.148900785763E-03  0.102162929368E-03  0.692287866466E-04
 ae wavefunction
  0.107659423120E-02  0.111131685047E-02  0.114715795530E-02  0.118415348326E-02  0.122234052093E-02
  0.126175734018E-02  0.130244343567E-02  0.134443956358E-02  0.138778778126E-02  0.143253148844E-02
  0.147871546942E-02  0.152638593675E-02  0.157559057610E-02  0.162637859264E-02  0.167880075868E-02
  0.173290946288E-02  0.178875876091E-02  0.184640442761E-02  0.190590401079E-02  0.196731688663E-02
  0.203070431670E-02  0.209612950672E-02  0.216365766715E-02  0.223335607546E-02  0.230529414034E-02
  0.237954346782E-02  0.245617792927E-02  0.253527373152E-02  0.261690948894E-02  0.270116629766E-02
  0.278812781203E-02  0.287788032321E-02  0.297051284007E-02  0.306611717246E-02  0.316478801683E-02
  0.326662304431E-02  0.337172299134E-02  0.348019175283E-02  0.359213647793E-02  0.370766766855E-02
  0.382689928060E-02  0.394994882802E-02  0.407693748973E-02  0.420799021947E-02  0.434323585864E-02
  0.448280725223E-02  0.462684136780E-02  0.477547941773E-02  0.492886698461E-02  0.508715414994E-02
  0.525049562623E-02  0.541905089248E-02  0.559298433308E-02  0.577246538028E-02  0.595766866014E-02
  0.614877414225E-02  0.634596729286E-02  0.654943923195E-02  0.675938689390E-02  0.697601319193E-02
  0.719952718639E-02  0.743014425686E-02  0.766808627808E-02  0.791358179976E-02  0.816686623021E-02
  0.842818202394E-02  0.869777887295E-02  0.897591390214E-02  0.926285186810E-02  0.955886536223E-02
  0.986423501724E-02  0.101792497172E-01  0.105042068116E-01  0.108394123328E-01  0.111851812167E-01
  0.115418375268E-01  0.119097146814E-01  0.122891556842E-01  0.126805133571E-01  0.130841505760E-01
  0.135004405089E-01  0.139297668563E-01  0.143725240934E-01  0.148291177135E-01  0.152999644735E-01
  0.157854926391E-01  0.162861422318E-01  0.168023652744E-01  0.173346260373E-01  0.178834012827E-01
  0.184491805083E-01  0.190324661871E-01  0.196337740062E-01  0.202536331001E-01  0.208925862803E-01
  0.215511902594E-01  0.222300158686E-01  0.229296482680E-01  0.236506871478E-01  0.243937469200E-01
  0.251594568996E-01  0.259484614720E-01  0.267614202478E-01  0.275990082008E-01  0.284619157898E-01
  0.293508490600E-01  0.302665297242E-01  0.312096952205E-01  0.321810987438E-01  0.331815092500E-01
  0.342117114295E-01  0.352725056469E-01  0.363647078449E-01  0.374891494086E-01  0.386466769866E-01
  0.398381522667E-01  0.410644517002E-01  0.423264661736E-01  0.436251006201E-01  0.449612735700E-01
  0.463359166322E-01  0.477499739031E-01  0.492044012981E-01  0.507001657982E-01  0.522382446076E-01
  0.538196242151E-01  0.554452993522E-01  0.571162718420E-01  0.588335493301E-01  0.605981438915E-01
  0.624110705032E-01  0.642733453756E-01  0.661859841331E-01  0.681499998340E-01  0.701664008205E-01
  0.722361883883E-01  0.743603542644E-01  0.765398778828E-01  0.787757234457E-01  0.810688367583E-01
  0.834201418243E-01  0.858305371891E-01  0.883008920180E-01  0.908320418923E-01  0.934247843144E-01
  0.960798739005E-01  0.987980172515E-01  0.101579867481E+00  0.104426018390E+00  0.107336998270E+00
  0.110313263310E+00  0.113355190611E+00  0.116463070766E+00  0.119637100009E+00  0.122877371906E+00
  0.126183868571E+00  0.129556451401E+00  0.132994851298E+00  0.136498658380E+00  0.140067311149E+00
  0.143700085119E+00  0.147396080881E+00  0.151154211590E+00  0.154973189882E+00  0.158851514192E+00
  0.162787454480E+00  0.166779037355E+00  0.170824030604E+00  0.174919927122E+00  0.179063928242E+00
  0.183252926498E+00  0.187483487806E+00  0.191751833104E+00  0.196053819466E+00  0.200384920720E+00
  0.204740207613E+00  0.209114327557E+00  0.213501484019E+00  0.217895415614E+00  0.222289374957E+00
  0.226676107377E+00  0.231047829564E+00  0.235396208261E+00  0.239712339121E+00  0.243986725836E+00
  0.248209259714E+00  0.252369199828E+00  0.256455153938E+00  0.260455060354E+00  0.264356170971E+00
  0.268145035680E+00  0.271807488424E+00  0.275328635141E+00  0.278692843906E+00  0.281883737556E+00
  0.284884189149E+00  0.287676320591E+00  0.290241504815E+00  0.292560371905E+00  0.294612819575E+00
  0.296378028456E+00  0.297834482632E+00  0.298959995912E+00  0.299731744333E+00  0.300126305399E+00
  0.300119704583E+00  0.299687469621E+00  0.298804693144E+00  0.297446104182E+00  0.295586149085E+00
  0.293199082389E+00  0.290259068142E+00  0.286740292189E+00  0.282617085875E+00  0.277864061589E+00
  0.272456260537E+00  0.266369313045E+00  0.259579611643E+00  0.252064497101E+00  0.243802457463E+00
  0.234773340047E+00  0.224958576238E+00  0.214341418770E+00  0.202907191031E+00  0.190643547772E+00
  0.177540746419E+00  0.163591927976E+00  0.148793406317E+00  0.133144964429E+00  0.116650155899E+00
  0.993166096879E-01  0.811563358993E-01  0.621860299096E-01  0.424273718445E-01  0.219073179606E-01
  0.658380091254E-03 -0.212811110197E-01 -0.438667628312E-01 -0.670479027131E-01 -0.907673877291E-01
 -0.114961444760E+00 -0.139559541593E+00 -0.164484288026E+00 -0.189651365330E+00 -0.214969483360E+00
 -0.240340367878E+00 -0.265658785825E+00 -0.290812622242E+00 -0.315683027631E+00 -0.340144655671E+00
 -0.364066008017E+00 -0.387309893627E+00 -0.409733999951E+00 -0.431191565210E+00 -0.451532138952E+00
 -0.470602421786E+00 -0.488247179473E+00 -0.504310230380E+00 -0.518635505333E+00 -0.531068177237E+00
 -0.541455855263E+00 -0.549649835587E+00 -0.555506399098E+00 -0.558888145317E+00 -0.559665351058E+00
 -0.557717342710E+00 -0.552933870354E+00 -0.545216472300E+00 -0.534479818482E+00 -0.520653020739E+00
 -0.503680897809E+00 -0.483525182539E+00 -0.460165657822E+00 -0.433601207414E+00 -0.403850766402E+00
 -0.370954155408E+00 -0.334972780780E+00 -0.295990182881E+00 -0.254112412216E+00 -0.209468214261E+00
 -0.162209003448E+00 -0.112508609000E+00 -0.605627792770E-01 -0.658843714327E-02  0.491773134626E-01
  0.106478420610E+00  0.165041341007E+00  0.224576701930E+00  0.284781158497E+00  0.345339461124E+00
  0.405926794441E+00  0.466211520957E+00  0.525858543572E+00  0.584533552262E+00  0.641908266345E+00
  0.697666175026E+00  0.751506987063E+00  0.803146657132E+00  0.852310599218E+00  0.898722499987E+00
  0.942097160122E+00  0.982145126258E+00  0.101858736891E+01  0.105117055687E+01  0.107967619105E+01
  0.110392382683E+01  0.112377154951E+01  0.113911599318E+01  0.114989268583E+01  0.115607668274E+01
  0.115768317720E+01  0.115476776381E+01  0.114742611124E+01  0.113579292042E+01  0.112004013664E+01
  0.110037446601E+01  0.107703428942E+01  0.105028608350E+01  0.102042046972E+01  0.987748008609E+00
  0.952594840321E+00  0.915298271815E+00  0.876202401676E+00  0.835653844256E+00  0.793997629766E+00
  0.751573320865E+00  0.708711386646E+00  0.665729862445E+00  0.622931312071E+00  0.580600103192E+00
  0.539000002752E+00  0.498372100096E+00  0.458933068872E+00  0.420873786618E+00  0.384358337773E+00
  0.349523430832E+00  0.316478259969E+00  0.285304831376E+00  0.256058759067E+00  0.228770511466E+00
  0.203447065556E+00  0.180073902676E+00  0.158617263023E+00  0.139026566782E+00  0.121236908984E+00
  0.105171542000E+00  0.907442723175E-01  0.778617149969E-01  0.664253678381E-01  0.563334857014E-01
  0.474827516011E-01  0.397697533664E-01  0.330922817212E-01  0.273504673536E-01  0.224477718310E-01
  0.182918418084E-01  0.147952299859E-01  0.118759815632E-01  0.945808267600E-02  0.747176780200E-02
  0.585368597835E-02  0.454693004842E-02  0.350093807081E-02  0.267128063291E-02  0.201935149036E-02
  0.151198135913E-02  0.112099571738E-02  0.822737212071E-03  0.597571913833E-03  0.429396487617E-03
  0.305160627581E-03  0.214416110523E-03  0.148900785763E-03  0.102162929368E-03  0.692287866466E-04
 pseudo wavefunction
  0.142174192078E-03  0.146797342105E-03  0.151570825434E-03  0.156499530532E-03  0.161588504821E-03
  0.166842959856E-03  0.172268276658E-03  0.177870011224E-03  0.183653900221E-03  0.189625866855E-03
  0.195792026942E-03  0.202158695167E-03  0.208732391556E-03  0.215519848146E-03  0.222528015885E-03
  0.229764071750E-03  0.237235426093E-03  0.244949730232E-03  0.252914884287E-03  0.261139045273E-03
  0.269630635446E-03  0.278398350936E-03  0.287451170648E-03  0.296798365458E-03  0.306449507710E-03
  0.316414481014E-03  0.326703490371E-03  0.337327072623E-03  0.348296107245E-03  0.359621827483E-03
  0.371315831860E-03  0.383390096057E-03  0.395856985169E-03  0.408729266377E-03  0.422020122017E-03
  0.435743163080E-03  0.449912443154E-03  0.464542472814E-03  0.479648234480E-03  0.495245197765E-03
  0.511349335313E-03  0.527977139159E-03  0.545145637617E-03  0.562872412717E-03  0.581175618213E-03
  0.600073998173E-03  0.619586906174E-03  0.639734325121E-03  0.660536887713E-03  0.682015897572E-03
  0.704193351057E-03  0.727091959794E-03  0.750735173931E-03  0.775147206155E-03  0.800353056486E-03
  0.826378537881E-03  0.853250302667E-03  0.880995869833E-03  0.909643653216E-03  0.939222990595E-03
  0.969764173736E-03  0.100129847941E-02  0.103385820144E-02  0.106747668374E-02  0.110218835448E-02
  0.113802876136E-02  0.117503460797E-02  0.121324379142E-02  0.125269544112E-02  0.129342995887E-02
  0.133548906021E-02  0.137891581718E-02  0.142375470237E-02  0.147005163451E-02  0.151785402549E-02
  0.156721082886E-02  0.161817259004E-02  0.167079149801E-02  0.172512143879E-02  0.178121805063E-02
  0.183913878095E-02  0.189894294518E-02  0.196069178753E-02  0.202444854366E-02  0.209027850546E-02
  0.215824908790E-02  0.222842989808E-02  0.230089280648E-02  0.237571202057E-02  0.245296416079E-02
  0.253272833902E-02  0.261508623958E-02  0.270012220287E-02  0.278792331171E-02  0.287857948056E-02
  0.297218354753E-02  0.306883136947E-02  0.316862192010E-02  0.327165739139E-02  0.337804329811E-02
  0.348788858596E-02  0.360130574305E-02  0.371841091509E-02  0.383932402428E-02  0.396416889215E-02
  0.409307336624E-02  0.422616945104E-02  0.436359344315E-02  0.450548607072E-02  0.465199263762E-02
  0.480326317209E-02  0.495945258039E-02  0.512072080531E-02  0.528723298992E-02  0.545915964657E-02
  0.563667683144E-02  0.581996632471E-02  0.600921581661E-02  0.620461909949E-02  0.640637626614E-02
  0.661469391456E-02  0.682978535932E-02  0.705187084988E-02  0.728117779585E-02  0.751794099973E-02
  0.776240289705E-02  0.801481380439E-02  0.827543217543E-02  0.854452486522E-02  0.882236740317E-02
  0.910924427476E-02  0.940544921239E-02  0.971128549575E-02  0.100270662618E-01  0.103531148249E-01
  0.106897650071E-01  0.110373614794E-01  0.113962601141E-01  0.117668283477E-01  0.121494455569E-01
  0.125445034458E-01  0.129524064456E-01  0.133735721277E-01  0.138084316301E-01  0.142574300967E-01
  0.147210271320E-01  0.151996972697E-01  0.156939304561E-01  0.162042325504E-01  0.167311258393E-01
  0.172751495694E-01  0.178368604965E-01  0.184168334520E-01  0.190156619279E-01  0.196339586806E-01
  0.202723563536E-01  0.209315081205E-01  0.216120883483E-01  0.223147932820E-01  0.230403417506E-01
  0.237894758963E-01  0.245629619260E-01  0.253615908873E-01  0.261861794682E-01  0.270375708236E-01
  0.279166354255E-01  0.288242719425E-01  0.297614081449E-01  0.307290018392E-01  0.317280418311E-01
  0.327595489193E-01  0.338245769192E-01  0.349242137190E-01  0.360595823678E-01  0.372318421975E-01
  0.384421899790E-01  0.396918611130E-01  0.409821308579E-01  0.423143155937E-01  0.436897741247E-01
  0.451099090203E-01  0.465761679962E-01  0.480900453355E-01  0.496530833523E-01  0.512668738968E-01
  0.529330599042E-01  0.546533369875E-01  0.564294550756E-01  0.582632200966E-01  0.601564957079E-01
  0.621112050730E-01  0.641293326868E-01  0.662129262481E-01  0.683640985817E-01  0.705850296089E-01
  0.728779683682E-01  0.752452350842E-01  0.776892232872E-01  0.802124019811E-01  0.828173178606E-01
  0.855065975768E-01  0.882829500498E-01  0.911491688282E-01  0.941081344934E-01  0.971628171072E-01
  0.100316278700E+00  0.103571675801E+00  0.106932261998E+00  0.110401390535E+00  0.113982516936E+00
  0.117679201656E+00  0.121495112739E+00  0.125434028505E+00  0.129499840227E+00  0.133696554814E+00
  0.138028297478E+00  0.142499314382E+00  0.147113975250E+00  0.151876775935E+00  0.156792340923E+00
  0.161865425758E+00  0.167100919379E+00  0.172503846331E+00  0.178079368847E+00  0.183832788759E+00
  0.189769549220E+00  0.195895236210E+00  0.202215579774E+00  0.208736454974E+00  0.215463882497E+00
  0.222404028889E+00  0.229563206347E+00  0.236947872016E+00  0.244564626747E+00  0.252420213213E+00
  0.260521513344E+00  0.268875544971E+00  0.277489457599E+00  0.286370527210E+00  0.295526149984E+00
  0.304963834812E+00  0.314691194489E+00  0.324715935417E+00  0.335045845680E+00  0.345688781324E+00
  0.356652650635E+00  0.367945396240E+00  0.379574974791E+00  0.391549334007E+00  0.403876386817E+00
  0.416563982317E+00  0.429619873252E+00  0.443051679704E+00  0.456866848630E+00  0.471072608882E+00
  0.485675921331E+00  0.500683423645E+00  0.516101369305E+00  0.531935560367E+00  0.548191273475E+00
  0.564873178619E+00  0.581985250072E+00  0.599530668965E+00  0.617511716912E+00  0.635929660088E+00
  0.654784623191E+00  0.674075452668E+00  0.693799568651E+00  0.713952805041E+00  0.734529237221E+00
  0.755520996958E+00  0.776918074101E+00  0.798708104802E+00  0.820876146132E+00  0.843404437085E+00
  0.866272146222E+00  0.889455106421E+00  0.912925537497E+00  0.936651757851E+00  0.960597886684E+00
  0.984723538831E+00  0.100898351485E+01  0.103332748965E+01  0.105769970365E+01  0.108203866142E+01
  0.110627684354E+01  0.113034043861E+01  0.115414910332E+01  0.117761575980E+01  0.120064644076E+01
  0.122314019404E+01  0.124498905986E+01  0.126607813480E+01  0.128628573821E+01  0.130548369709E+01
  0.132353776650E+01  0.134030820230E+01  0.135565050264E+01  0.136941633293E+01  0.138145464673E+01
  0.139161301060E+01  0.139973913558E+01  0.140568261000E+01  0.140929681781E+01  0.141044101395E+01
  0.140898251167E+01  0.140479891713E+01  0.139778032339E+01  0.138783134925E+01  0.137487287844E+01
  0.135884332280E+01  0.133969919993E+01  0.131741478429E+01  0.129198056347E+01  0.126340021241E+01
  0.123168579438E+01  0.119685091437E+01  0.115890159751E+01  0.111782475325E+01  0.107357422481E+01
  0.102608997600E+01  0.975571098551E+00  0.922364219711E+00  0.866812643070E+00  0.000000000000E+00
  0.000000000000E+00  0.000000000000E+00  0.000000000000E+00  0.000000000000E+00  0.000000000000E+00
  0.000000000000E+00  0.000000000000E+00  0.000000000000E+00  0.000000000000E+00  0.000000000000E+00
  0.000000000000E+00  0.000000000000E+00  0.000000000000E+00  0.000000000000E+00  0.000000000000E+00
  0.000000000000E+00  0.000000000000E+00  0.000000000000E+00  0.000000000000E+00  0.000000000000E+00
  0.000000000000E+00  0.000000000000E+00  0.000000000000E+00  0.000000000000E+00  0.000000000000E+00
  0.000000000000E+00  0.000000000000E+00  0.000000000000E+00  0.000000000000E+00  0.000000000000E+00
  0.000000000000E+00  0.000000000000E+00  0.000000000000E+00  0.000000000000E+00  0.000000000000E+00
  0.000000000000E+00  0.000000000000E+00  0.000000000000E+00  0.000000000000E+00  0.000000000000E+00
  0.000000000000E+00  0.000000000000E+00  0.000000000000E+00  0.000000000000E+00  0.000000000000E+00
  0.000000000000E+00  0.000000000000E+00  0.000000000000E+00  0.000000000000E+00  0.000000000000E+00
 ae wavefunction
  0.123947686079E-02  0.127945281627E-02  0.132071647786E-02  0.136330922027E-02  0.140727374105E-02
  0.145265410242E-02  0.149949577435E-02  0.154784567919E-02  0.159775223734E-02  0.164926541464E-02
  0.170243677103E-02  0.175731951073E-02  0.181396853400E-02  0.187244049047E-02  0.193279383399E-02
  0.199508887935E-02  0.205938786053E-02  0.212575499079E-02  0.219425652460E-02  0.226496082140E-02
  0.233793841130E-02  0.241326206268E-02  0.249100685197E-02  0.257125023534E-02  0.265407212263E-02
  0.273955495343E-02  0.282778377546E-02  0.291884632518E-02  0.301283311086E-02  0.310983749804E-02
  0.320995579748E-02  0.331328735569E-02  0.341993464809E-02  0.353000337483E-02  0.364360255937E-02
  0.376084464995E-02  0.388184562385E-02  0.400672509466E-02  0.413560642261E-02  0.426861682789E-02
  0.440588750730E-02  0.454755375396E-02  0.469375508046E-02  0.484463534531E-02  0.500034288288E-02
  0.516103063683E-02  0.532685629714E-02  0.549798244079E-02  0.567457667616E-02  0.585681179122E-02
  0.604486590558E-02  0.623892262650E-02  0.643917120875E-02  0.664580671870E-02  0.685903020231E-02
  0.707904885750E-02  0.730607621049E-02  0.754033229660E-02  0.778204384520E-02  0.803144446907E-02
  0.828877485819E-02  0.855428297778E-02  0.882822427090E-02  0.911086186547E-02  0.940246678568E-02
  0.970331816795E-02  0.100137034812E-01  0.103339187517E-01  0.106642687922E-01  0.110050674355E-01
  0.113566377723E-01  0.117193123931E-01  0.120934336345E-01  0.124793538298E-01  0.128774355626E-01
  0.132880519251E-01  0.137115867801E-01  0.141484350252E-01  0.145990028622E-01  0.150637080678E-01
  0.155429802679E-01  0.160372612146E-01  0.165470050643E-01  0.170726786591E-01  0.176147618082E-01
  0.181737475714E-01  0.187501425422E-01  0.193444671317E-01  0.199572558509E-01  0.205890575931E-01
  0.212404359135E-01  0.219119693058E-01  0.226042514768E-01  0.233178916153E-01  0.240535146562E-01
  0.248117615386E-01  0.255932894563E-01  0.263987720995E-01  0.272288998869E-01  0.280843801863E-01
  0.289659375229E-01  0.298743137724E-01  0.308102683391E-01  0.317745783144E-01  0.327680386177E-01
  0.337914621124E-01  0.348456797001E-01  0.359315403862E-01  0.370499113168E-01  0.382016777833E-01
  0.393877431918E-01  0.406090289937E-01  0.418664745750E-01  0.431610371000E-01  0.444936913056E-01
  0.458654292426E-01  0.472772599586E-01  0.487302091194E-01  0.502253185627E-01  0.517636457792E-01
  0.533462633168E-01  0.549742580989E-01  0.566487306556E-01  0.583707942555E-01  0.601415739364E-01
  0.619622054242E-01  0.638338339332E-01  0.657576128410E-01  0.677347022273E-01  0.697662672697E-01
  0.718534764849E-01  0.739974998083E-01  0.761995064980E-01  0.784606628558E-01  0.807821297515E-01
  0.831650599393E-01  0.856105951546E-01  0.881198629764E-01  0.906939734441E-01  0.933340154129E-01
  0.960410526339E-01  0.988161195438E-01  0.101660216749E+00  0.104574306186E+00  0.107559305946E+00
  0.110616084736E+00  0.113745455981E+00  0.116948171515E+00  0.120224914881E+00  0.123576294188E+00
  0.127002834528E+00  0.130504969927E+00  0.134083034803E+00  0.137737254929E+00  0.141467737858E+00
  0.145274462822E+00  0.149157270048E+00  0.153115849513E+00  0.157149729088E+00  0.161258262071E+00
  0.165440614090E+00  0.169695749359E+00  0.174022416274E+00  0.178419132347E+00  0.182884168448E+00
  0.187415532372E+00  0.192010951714E+00  0.196667856044E+00  0.201383358410E+00  0.206154236145E+00
  0.210976911010E+00  0.215847428682E+00  0.220761437609E+00  0.225714167266E+00  0.230700405831E+00
  0.235714477347E+00  0.240750218400E+00  0.245800954384E+00  0.250859475423E+00  0.255918012020E+00
  0.260968210546E+00  0.266001108644E+00  0.271007110699E+00  0.275975963478E+00  0.280896732106E+00
  0.285757776536E+00  0.290546728692E+00  0.295250470495E+00  0.299855112975E+00  0.304345976730E+00
  0.308707573973E+00  0.312923592467E+00  0.316976881638E+00  0.320849441221E+00  0.324522412757E+00
  0.327976074367E+00  0.331189839154E+00  0.334142257723E+00  0.336811025214E+00  0.339172993378E+00
  0.341204188168E+00  0.342879833391E+00  0.344174380959E+00  0.345061548319E+00  0.345514363640E+00
  0.345505219371E+00  0.345005934767E+00  0.343987828028E+00  0.342421798654E+00  0.340278420649E+00
  0.337528047184E+00  0.334140927314E+00  0.330087335312E+00  0.325337713177E+00  0.319862826769E+00
  0.313633936048E+00  0.306622979753E+00  0.298802774807E+00  0.290147230655E+00  0.280631578587E+00
  0.270232616010E+00  0.258928965474E+00  0.246701348088E+00  0.233532870826E+00  0.219409326976E+00
  0.204319508825E+00  0.188255531427E+00  0.171213166060E+00  0.153192181708E+00  0.134196692631E+00
  0.114235509747E+00  0.933224931973E-01  0.714769030586E-01  0.487237447375E-01  0.250941050745E-01
  0.625474740592E-03 -0.246379478875E-01 -0.506449763665E-01 -0.773371841201E-01 -0.104648684678E+00
 -0.132505946833E+00 -0.160827645441E+00 -0.189524546789E+00 -0.218499426610E+00 -0.247647019978E+00
 -0.276854006021E+00 -0.305999036406E+00 -0.334952823396E+00 -0.363578309142E+00 -0.391730939167E+00
 -0.419259059340E+00 -0.446004444934E+00 -0.471802958727E+00 -0.496485325777E+00 -0.519878010156E+00
 -0.541804183214E+00 -0.562084777860E+00 -0.580539627800E+00 -0.596988690624E+00 -0.611253351835E+00
 -0.623157803830E+00 -0.632530490699E+00 -0.639205607862E+00 -0.643024644217E+00 -0.643837953651E+00
 -0.641506343191E+00 -0.635902664255E+00 -0.626913393955E+00 -0.614440193141E+00 -0.598401427495E+00
 -0.578733637660E+00 -0.555392944041E+00 -0.528356370765E+00 -0.497623072836E+00 -0.463215448918E+00
 -0.425180121382E+00 -0.383588763085E+00 -0.338538750214E+00 -0.290153617716E+00 -0.238583295173E+00
 -0.184004100449E+00 -0.126618471021E+00 -0.666544175010E-01 -0.436469052956E-02  0.599743388722E-01
  0.126064075162E+00  0.193585352011E+00  0.262200323217E+00  0.331554579770E+00  0.401279510802E+00
  0.470994979778E+00  0.540312470349E+00  0.608838949077E+00  0.676181750433E+00  0.741954610076E+00
  0.805784268204E+00  0.867315574818E+00  0.926211486605E+00  0.982145216960E+00  0.103478734879E+01
  0.108379763740E+01  0.112883042271E+01  0.116955159351E+01  0.120565619732E+01  0.123687895261E+01
  0.126299795010E+01  0.128383519381E+01  0.129925661327E+01  0.130917243867E+01  0.131353788631E+01
  0.131235378938E+01  0.130566679469E+01  0.129356884058E+01  0.127619576883E+01  0.125372502873E+01
  0.122637252477E+01  0.119438870687E+01  0.115805401854E+01  0.111767382963E+01  0.107357297204E+01
  0.102608997600E+01  0.975571098551E+00  0.922364219711E+00  0.866812643070E+00  0.000000000000E+00
  0.000000000000E+00  0.000000000000E+00  0.000000000000E+00  0.000000000000E+00  0.000000000000E+00
  0.000000000000E+00  0.000000000000E+00  0.000000000000E+00  0.000000000000E+00  0.000000000000E+00
  0.000000000000E+00  0.000000000000E+00  0.000000000000E+00  0.000000000000E+00  0.000000000000E+00
  0.000000000000E+00  0.000000000000E+00  0.000000000000E+00  0.000000000000E+00  0.000000000000E+00
  0.000000000000E+00  0.000000000000E+00  0.000000000000E+00  0.000000000000E+00  0.000000000000E+00
  0.000000000000E+00  0.000000000000E+00  0.000000000000E+00  0.000000000000E+00  0.000000000000E+00
  0.000000000000E+00  0.000000000000E+00  0.000000000000E+00  0.000000000000E+00  0.000000000000E+00
  0.000000000000E+00  0.000000000000E+00  0.000000000000E+00  0.000000000000E+00  0.000000000000E+00
  0.000000000000E+00  0.000000000000E+00  0.000000000000E+00  0.000000000000E+00  0.000000000000E+00
  0.000000000000E+00  0.000000000000E+00  0.000000000000E+00  0.000000000000E+00  0.000000000000E+00
 pseudo wavefunction
  0.677635619564E-08  0.722422183019E-08  0.770168797866E-08  0.821071101002E-08  0.875337659432E-08
  0.933190824856E-08  0.994867644728E-08  0.106062083354E-07  0.113071980829E-07  0.120545179239E-07
  0.128512299253E-07  0.137005985335E-07  0.146061039498E-07  0.155714563904E-07  0.166006112886E-07
  0.176977855019E-07  0.188674745897E-07  0.201144712339E-07  0.214438848762E-07  0.228611626536E-07
  0.243721117172E-07  0.259829230268E-07  0.277001967175E-07  0.295309691432E-07  0.314827417072E-07
  0.335635115984E-07  0.357818045592E-07  0.381467098186E-07  0.406679173346E-07  0.433557574975E-07
  0.462212434579E-07  0.492761162518E-07  0.525328929085E-07  0.560049177373E-07  0.597064170050E-07
  0.636525572263E-07  0.678595073071E-07  0.723445047946E-07  0.771259265069E-07  0.822233638297E-07
  0.876577029898E-07  0.934512106348E-07  0.996276250679E-07  0.106212253513E-06  0.113232075809E-06
  0.120715854957E-06  0.128694254971E-06  0.137199966524E-06  0.146267840894E-06  0.155935032760E-06
  0.166241152444E-06  0.177228428207E-06  0.188941879275E-06  0.201429500301E-06  0.214742458020E-06
  0.228935300893E-06  0.244066182620E-06  0.260197100415E-06  0.277394149034E-06  0.295727791587E-06
  0.315273148261E-06  0.336110304107E-06  0.358324637186E-06  0.382007168391E-06  0.407254934402E-06
  0.434171385272E-06  0.462866808311E-06  0.493458779971E-06  0.526072647600E-06  0.560842043041E-06
  0.597909430170E-06  0.637426688625E-06  0.679555736115E-06  0.724469191856E-06  0.772351083854E-06
  0.823397602941E-06  0.877817906639E-06  0.935834976153E-06  0.997686530009E-06  0.106362599807E-05
  0.113392355994E-05  0.120886725197E-05  0.128876414745E-05  0.137394161481E-05  0.146474865895E-05
  0.156155735123E-05  0.166476435398E-05  0.177479254578E-05  0.189209275409E-05  0.201714560248E-05
  0.215046347988E-05  0.229259264002E-05  0.244411543957E-05  0.260565272428E-05  0.277786637274E-05
  0.296146200834E-05  0.315719189033E-05  0.336585799615E-05  0.358831530727E-05  0.382547531231E-05
  0.407830974167E-05  0.434785454890E-05  0.463521415532E-05  0.494156597503E-05  0.526816523909E-05
  0.561635013842E-05  0.598754730667E-05  0.638327766538E-05  0.680516265545E-05  0.725493088047E-05
  0.773442518901E-05  0.824561022501E-05  0.879058047715E-05  0.937156886012E-05  0.999095586302E-05
  0.106512793023E-04  0.113552447194E-04  0.121057364651E-04  0.129058295167E-04  0.137588020760E-04
  0.146681489999E-04  0.156375961183E-04  0.166711154983E-04  0.177729417167E-04  0.189475892085E-04
  0.201998707610E-04  0.215349172303E-04  0.229581985604E-04  0.244755461917E-04  0.260931769491E-04
  0.278177185093E-04  0.296562365503E-04  0.316162636953E-04  0.337058303676E-04  0.359334976853E-04
  0.383083925288E-04  0.408402449240E-04  0.435394278970E-04  0.464169999595E-04  0.494847504020E-04
  0.527552475784E-04  0.562418903802E-04  0.599589631094E-04  0.639216939772E-04  0.681463174652E-04
  0.726501408046E-04  0.774516148465E-04  0.825704096114E-04  0.880274948266E-04  0.938452257824E-04
  0.100047434856E-03  0.106659529074E-03  0.113708594126E-03  0.121223505227E-03  0.129235045309E-03
  0.137776031013E-03  0.146881446984E-03  0.156588589039E-03  0.166937216771E-03  0.177969716224E-03
  0.189731273299E-03  0.202270058589E-03  0.215637424408E-03  0.229888114805E-03  0.245080489425E-03
  0.261276762121E-03  0.278543255287E-03  0.296950670953E-03  0.316574379724E-03  0.337494728756E-03
  0.359797370003E-03  0.383573610065E-03  0.408920783060E-03  0.435942648019E-03  0.464749812416E-03
  0.495460183531E-03  0.528199449485E-03  0.563101591861E-03  0.600309431986E-03  0.639975213070E-03
  0.682261220525E-03  0.727340442963E-03  0.775397276506E-03  0.826628275225E-03  0.881242950700E-03
  0.939464623877E-03  0.100153133261E-02  0.106769679848E-02  0.113823145673E-02  0.121342355333E-02
  0.129358031354E-02  0.137902918654E-02  0.147011917101E-02  0.156722222670E-02  0.167073477775E-02
  0.178107931326E-02  0.189870609148E-02  0.202409495416E-02  0.215775725789E-02  0.230023792984E-02
  0.245211765568E-02  0.261401520795E-02  0.278658992344E-02  0.297054433900E-02  0.316662699533E-02
  0.337563541908E-02  0.359841929417E-02  0.383588383360E-02  0.408899336392E-02  0.435877513495E-02
  0.464632336807E-02  0.495280355704E-02  0.527945703611E-02  0.562760583056E-02  0.599865780597E-02
  0.639411213283E-02  0.681556508392E-02  0.726471618285E-02  0.774337472234E-02  0.825346667198E-02
  0.879704199548E-02  0.937628239825E-02  0.999350952648E-02  0.106511936395E-01  0.113519627773E-01
  0.120986124460E-01  0.128941158428E-01  0.137416346434E-01  0.146445303735E-01  0.156063763865E-01
  0.166309704663E-01  0.177223480767E-01  0.188847962734E-01  0.201228682958E-01  0.214413988502E-01
  0.228455200951E-01  0.243406783343E-01  0.259326514189E-01  0.276275668522E-01  0.294319205873E-01
  0.313525964964E-01  0.333968864824E-01  0.355725111916E-01  0.378876412743E-01  0.403509191230E-01
  0.429714810018E-01  0.457589794607E-01  0.487236059030E-01  0.518761131506E-01  0.552278378191E-01
  0.587907222828E-01  0.625773359678E-01  0.666008956706E-01  0.708752845486E-01  0.754150693740E-01
  0.802355155792E-01  0.853525995569E-01  0.907830175952E-01  0.965441907499E-01  0.102654264857E+00
  0.109132104794E+00  0.115997281968E+00  0.123270053925E+00  0.130971334795E+00  0.139122655188E+00
  0.147746109989E+00  0.156864292351E+00  0.166500212006E+00  0.176677195887E+00  0.187418768837E+00
  0.198748512052E+00  0.210689896747E+00  0.223266090374E+00  0.236499732611E+00  0.250412678279E+00
  0.265025704248E+00  0.280358177476E+00  0.296427681373E+00  0.313249597893E+00  0.330836643078E+00
  0.349198354232E+00  0.368340527566E+00  0.388264605991E+00  0.408967017909E+00  0.430438469215E+00
  0.452663192521E+00  0.475618159771E+00  0.499272266974E+00  0.523585502848E+00  0.548508116731E+00
  0.573979805155E+00  0.599928941075E+00  0.626271874755E+00  0.652912340729E+00  0.679741010913E+00
  0.706635239589E+00  0.733459051361E+00  0.760063427792E+00  0.786286951812E+00  0.811956870212E+00
  0.836890632919E+00  0.860897961951E+00  0.883783491753E+00  0.905350004437E+00  0.925402256637E+00
  0.943751357373E+00  0.960219606855E+00  0.974645642945E+00  0.986889664110E+00  0.996838404958E+00
  0.100440943428E+01  0.100955422915E+01  0.101225935861E+01  0.101254499610E+01  0.101045988700E+01
  0.100607184514E+01  0.999452868275E+00  0.990658079673E+00  0.979697960606E+00  0.966503781248E+00
  0.950915604569E+00  0.932963838356E+00  0.912798123130E+00  0.890585456604E+00  0.866502319806E+00
  0.840732903579E+00  0.813467369092E+00  0.784900139488E+00  0.755228215538E+00  0.724649507087E+00
  0.693361158873E+00  0.661557861218E+00  0.629430136316E+00  0.597162609800E+00  0.564932290002E+00
  0.532906928013E+00  0.501243458720E+00  0.470086683689E+00  0.439568202965E+00  0.409805680948E+00
  0.380902477544E+00  0.352947650945E+00  0.326016307993E+00  0.300170250779E+00  0.275458847007E+00
  0.251920038634E+00  0.229581399161E+00  0.208461155074E+00  0.188569100977E+00  0.169907359797E+00
  0.152470966888E+00  0.136248286153E+00  0.121221292823E+00  0.107365776811E+00  0.946515292503E-01
  0.830425723572E-01  0.724974805649E-01  0.629698226975E-01  0.544087347694E-01  0.467596145173E-01
  0.399649144083E-01  0.339650006920E-01  0.286990420017E-01  0.241058912578E-01  0.201249280373E-01
  0.166968339963E-01  0.137642803452E-01  0.112725130113E-01  0.916982741956E-02  0.740793044972E-02
  0.594219188888E-02  0.473179153229E-02  0.373977098768E-02  0.293300127412E-02  0.228207855311E-02
 ae wavefunction
 -0.451981104250E-06 -0.479427153534E-06 -0.508398850896E-06 -0.538989394083E-06 -0.571297334879E-06
 -0.605426915816E-06 -0.641488428041E-06 -0.679598583748E-06 -0.719880923325E-06 -0.762466234859E-06
 -0.807493009336E-06 -0.855107919171E-06 -0.905466326433E-06 -0.958732823594E-06 -0.101508180983E-05
 -0.107469809839E-05 -0.113777756691E-05 -0.120452784628E-05 -0.127516905200E-05 -0.134993456255E-05
 -0.142907184753E-05 -0.151284334653E-05 -0.160152740354E-05 -0.169541926200E-05 -0.179483212105E-05
 -0.190009825997E-05 -0.201157023326E-05 -0.212962214216E-05 -0.225465098669E-05 -0.238707810453E-05
 -0.252735069977E-05 -0.267594347263E-05 -0.283336034931E-05 -0.300013632571E-05 -0.317683942725E-05
 -0.336407279523E-05 -0.356247690651E-05 -0.377273193581E-05 -0.399556026958E-05 -0.423172918169E-05
 -0.448205368098E-05 -0.474739954163E-05 -0.502868652938E-05 -0.532689183520E-05 -0.564305372980E-05
 -0.597827545441E-05 -0.633372936192E-05 -0.671066132534E-05 -0.711039542968E-05 -0.753433897009E-05
 -0.798398776781E-05 -0.846093183105E-05 -0.896686138544E-05 -0.950357328524E-05 -0.100729778495E-04
 -0.106771061273E-04 -0.113181176444E-04 -0.119983086400E-04 -0.127201208426E-04 -0.134861508070E-04
 -0.142991598573E-04 -0.151620846710E-04 -0.160780485446E-04 -0.170503733868E-04 -0.180825924860E-04
 -0.191784640970E-04 -0.203419859148E-04 -0.215774104548E-04 -0.228892614670E-04 -0.242823513551E-04
 -0.257617997528E-04 -0.273330532877E-04 -0.290019066114E-04 -0.307745247684E-04 -0.326574670297E-04
 -0.346577122305E-04 -0.367826857484E-04 -0.390402881979E-04 -0.414389259738E-04 -0.439875437396E-04
 -0.466956590082E-04 -0.495733989024E-04 -0.526315393059E-04 -0.558815464717E-04 -0.593356213032E-04
 -0.630067464457E-04 -0.669087363834E-04 -0.710562907056E-04 -0.754650507707E-04 -0.801516599416E-04
 -0.851338276595E-04 -0.904303975502E-04 -0.960614198481E-04 -0.102048228378E-03 -0.108413522396E-03
 -0.115181453578E-03 -0.122377718464E-03 -0.130029656722E-03 -0.138166355547E-03 -0.146818760593E-03
 -0.156019793844E-03 -0.165804478807E-03 -0.176210073516E-03 -0.187276211778E-03 -0.199045053172E-03
 -0.211561442318E-03 -0.224873078016E-03 -0.239030692721E-03 -0.254088243106E-03 -0.270103112285E-03
 -0.287136324368E-03 -0.305252772149E-03 -0.324521458585E-03 -0.345015752937E-03 -0.366813662422E-03
 -0.389998120164E-03 -0.414657290534E-03 -0.440884892697E-03 -0.468780543503E-03 -0.498450120770E-03
 -0.530006148044E-03 -0.563568202118E-03 -0.599263344453E-03 -0.637226577858E-03 -0.677601329795E-03
 -0.720539963662E-03 -0.766204319626E-03 -0.814766286485E-03 -0.866408406199E-03 -0.921324512750E-03
 -0.979720407090E-03 -0.104181456996E-02 -0.110783891449E-02 -0.117803958047E-02 -0.125267777235E-02
 -0.133203064296E-02 -0.141639222524E-02 -0.150607441392E-02 -0.160140799965E-02 -0.170274375770E-02
 -0.181045359368E-02 -0.192493174862E-02 -0.204659606581E-02 -0.217588932195E-02 -0.231328062495E-02
 -0.245926688094E-02 -0.261437433291E-02 -0.277916017351E-02 -0.295421423430E-02 -0.314016075385E-02
 -0.333766022711E-02 -0.354741133795E-02 -0.377015297717E-02 -0.400666634785E-02 -0.425777715959E-02
 -0.452435791335E-02 -0.480733027794E-02 -0.510766755926E-02 -0.542639726271E-02 -0.576460374899E-02
 -0.612343098308E-02 -0.650408537537E-02 -0.690783871372E-02 -0.733603118430E-02 -0.779007447823E-02
 -0.827145498047E-02 -0.878173703635E-02 -0.932256628988E-02 -0.989567308723E-02 -0.105028759372E-01
 -0.111460850190E-01 -0.118273057268E-01 -0.125486422379E-01 -0.133123010898E-01 -0.141205947507E-01
 -0.149759451632E-01 -0.158808872413E-01 -0.168380722971E-01 -0.178502713699E-01 -0.189203784296E-01
 -0.200514134210E-01 -0.212465251145E-01 -0.225089937218E-01 -0.238422332362E-01 -0.252497934469E-01
 -0.267353615787E-01 -0.283027634993E-01 -0.299559644340E-01 -0.316990691212E-01 -0.335363213391E-01
 -0.354721027254E-01 -0.375109308101E-01 -0.396574561712E-01 -0.419164586225E-01 -0.442928423313E-01
 -0.467916297631E-01 -0.494179543393E-01 -0.521770516936E-01 -0.550742493999E-01 -0.581149550477E-01
 -0.613046425268E-01 -0.646488363850E-01 -0.681530941155E-01 -0.718229862252E-01 -0.756640739368E-01
 -0.796818843719E-01 -0.838818830621E-01 -0.882694436374E-01 -0.928498145421E-01 -0.976280826311E-01
 -0.102609133509E+00 -0.107797608474E+00 -0.113197857959E+00 -0.118813891337E+00 -0.124649323024E+00
 -0.130707314791E+00 -0.136990514236E+00 -0.143500989391E+00 -0.150240159472E+00 -0.157208721807E+00
 -0.164406575017E+00 -0.171832738572E+00 -0.179485268882E+00 -0.187361172153E+00 -0.195456314278E+00
 -0.203765328104E+00 -0.212281518527E+00 -0.220996765891E+00 -0.229901428344E+00 -0.238984243873E+00
 -0.248232232903E+00 -0.257630602502E+00 -0.267162653369E+00 -0.276809690987E+00 -0.286550942361E+00
 -0.296363479797E+00 -0.306222153012E+00 -0.316099530263E+00 -0.325965848577E+00 -0.335788971734E+00
 -0.345534353546E+00 -0.355165002783E+00 -0.364641446048E+00 -0.373921686322E+00 -0.382961158235E+00
 -0.391712686090E+00 -0.400126455902E+00 -0.408150016879E+00 -0.415728329302E+00 -0.422803872352E+00
 -0.429316818734E+00 -0.435205272001E+00 -0.440405554344E+00 -0.444852528783E+00 -0.448479942623E+00
 -0.451220786300E+00 -0.453007667368E+00 -0.453773203197E+00 -0.453450435530E+00 -0.451973268355E+00
 -0.449276928417E+00 -0.445298445794E+00 -0.439977151292E+00 -0.433255187099E+00 -0.425078027159E+00
 -0.415395004466E+00 -0.404159842239E+00 -0.391331186534E+00 -0.376873137777E+00 -0.360755778559E+00
 -0.342955694851E+00 -0.323456487549E+00 -0.302249270482E+00 -0.279333150658E+00 -0.254715685387E+00
 -0.228413310268E+00 -0.200451730530E+00 -0.170866267813E+00 -0.139702152575E+00 -0.107014752622E+00
 -0.728697275544E-01 -0.373430998875E-01 -0.521235601307E-03  0.374992699753E-01  0.766118008034E-01
  0.116700018437E+00  0.157638241895E+00  0.199291901700E+00  0.241518068741E+00  0.284166078996E+00
  0.327078310993E+00  0.370091227939E+00  0.413036857752E+00  0.455744924265E+00  0.498045727600E+00
  0.539773412610E+00  0.580768282790E+00  0.620875784904E+00  0.659940326738E+00  0.697795725163E+00
  0.734258704566E+00  0.769131461823E+00  0.802212104755E+00  0.833305795377E+00  0.862231394333E+00
  0.888823727757E+00  0.912933899067E+00  0.934429432555E+00  0.953194881827E+00  0.969132894427E+00
  0.982165499183E+00  0.992235357303E+00  0.999306768519E+00  0.100336630768E+01  0.100442303333E+01
  0.100250827235E+01  0.997675018181E+00  0.989996993480E+00  0.979567439520E+00  0.966497693634E+00
  0.950915604569E+00  0.932963838356E+00  0.912798123130E+00  0.890585456604E+00  0.866502319806E+00
  0.840732903579E+00  0.813467369092E+00  0.784900139488E+00  0.755228215538E+00  0.724649507087E+00
  0.693361158873E+00  0.661557861218E+00  0.629430136316E+00  0.597162609800E+00  0.564932290002E+00
  0.532906928013E+00  0.501243458720E+00  0.470086683689E+00  0.439568202965E+00  0.409805680948E+00
  0.380902477544E+00  0.352947650945E+00  0.326016307993E+00  0.300170250779E+00  0.275458847007E+00
  0.251920038634E+00  0.229581399161E+00  0.208461155074E+00  0.188569100977E+00  0.169907359797E+00
  0.152470966888E+00  0.136248286153E+00  0.121221292823E+00  0.107365776811E+00  0.946515292503E-01
  0.830425723572E-01  0.724974805649E-01  0.629698226975E-01  0.544087347694E-01  0.467596145173E-01
  0.399649144083E-01  0.339650006920E-01  0.286990420017E-01  0.241058912578E-01  0.201249280373E-01
  0.166968339963E-01  0.137642803452E-01  0.112725130113E-01  0.916982741956E-02  0.740793044972E-02
  0.594219188888E-02  0.473179153229E-02  0.373977098768E-02  0.293300127412E-02  0.228207855311E-02
 pseudo wavefunction
  0.949322754125E-08  0.101206577196E-07  0.107895562632E-07  0.115026639158E-07  0.122629025634E-07
  0.130733872065E-07  0.139374387234E-07  0.148585974772E-07  0.158406378221E-07  0.168875835685E-07
  0.180037244700E-07  0.191936338001E-07  0.204621870913E-07  0.218145821115E-07  0.232563601614E-07
  0.247934287797E-07  0.264320859486E-07  0.281790458988E-07  0.300414666206E-07  0.320269791933E-07
  0.341437190520E-07  0.364003593228E-07  0.388061463588E-07  0.413709376273E-07  0.441052420987E-07
  0.470202633068E-07  0.501279452535E-07  0.534410213484E-07  0.569730665826E-07  0.607385531508E-07
  0.647529097496E-07  0.690325847952E-07  0.735951138186E-07  0.784591913161E-07  0.836447473480E-07
  0.891730291995E-07  0.950666884399E-07  0.101349873735E-06  0.108048329792E-06  0.115189502849E-06
  0.122802653130E-06  0.130918974738E-06  0.139571723468E-06  0.148796353069E-06  0.158630660513E-06
  0.169114940864E-06  0.180292152382E-06  0.192208092539E-06  0.204911585673E-06  0.218454683038E-06
  0.232892876075E-06  0.248285323789E-06  0.264695095142E-06  0.282189427474E-06  0.300840001996E-06
  0.320723237502E-06  0.341920603483E-06  0.364518953939E-06  0.388610883254E-06  0.414295105595E-06
  0.441676859374E-06  0.470868338459E-06  0.501989151870E-06  0.535166813865E-06  0.570537266416E-06
  0.608245436214E-06  0.648445828489E-06  0.691303160077E-06  0.736993034328E-06  0.785702660620E-06
  0.837631621425E-06  0.892992690074E-06  0.952012702569E-06  0.101493348702E-05  0.108201285448E-05
  0.115352565535E-05  0.122976490546E-05  0.131104298675E-05  0.139769292712E-05  0.149006976507E-05
  0.158855200431E-05  0.169354316471E-05  0.180547343565E-05  0.192480143859E-05  0.205201610629E-05
  0.218763868610E-05  0.233222487565E-05  0.248636709980E-05  0.265069693796E-05  0.282588771188E-05
  0.301265724447E-05  0.321177080097E-05  0.342404422444E-05  0.365034727858E-05  0.389160721135E-05
  0.414881255422E-05  0.442301717247E-05  0.471534458315E-05  0.502699255846E-05  0.535923803333E-05
  0.571344233734E-05  0.609105677245E-05  0.649362855934E-05  0.692280717667E-05  0.738035111940E-05
  0.786813510369E-05  0.838815774798E-05  0.894254976166E-05  0.953358267495E-05  0.101636781457E-04
  0.108354178813E-04  0.115515542160E-04  0.123150213878E-04  0.131289475601E-04  0.139966676378E-04
  0.149217369309E-04  0.159079457200E-04  0.169593347858E-04  0.180802119634E-04  0.192751697912E-04
  0.205491043265E-04  0.219072352033E-04  0.233551270167E-04  0.248987121199E-04  0.265443149270E-04
  0.282986778227E-04  0.301689887835E-04  0.321629108238E-04  0.342886133879E-04  0.365548058163E-04
  0.389707730229E-04  0.415464135291E-04  0.442922800118E-04  0.472196225294E-04  0.503404346035E-04
  0.536675023459E-04  0.572144568296E-04  0.609958299212E-04  0.650271137995E-04  0.693248244075E-04
  0.739065690940E-04  0.787911187243E-04  0.839984845528E-04  0.895500001730E-04  0.954684088797E-04
  0.101777956800E-03  0.108504492175E-03  0.115675571195E-03  0.123320570828E-03  0.131470809091E-03
  0.140159673263E-03  0.149422756567E-03  0.159298003866E-03  0.169825866983E-03  0.181049470266E-03
  0.193014787078E-03  0.205770827941E-03  0.219369841081E-03  0.233867526213E-03  0.249323262419E-03
  0.265800351063E-03  0.283366274715E-03  0.302092973158E-03  0.322057137576E-03  0.343340524143E-03
  0.366030288277E-03  0.390219340904E-03  0.416006728205E-03  0.443498036363E-03  0.472805822961E-03
  0.504050076779E-03  0.537358707842E-03  0.572868069718E-03  0.610723516157E-03  0.651079994330E-03
  0.694102677060E-03  0.739967636588E-03  0.788862562582E-03  0.840987527292E-03  0.896555800898E-03
  0.955794720336E-03  0.101894661508E-02  0.108626979357E-02  0.115803959421E-02  0.123454950519E-02
  0.131611235746E-02  0.140306159571E-02  0.149575263234E-02  0.159456428970E-02  0.169990033639E-02
  0.181219112366E-02  0.193189532813E-02  0.205950180789E-02  0.219553157905E-02  0.234053992038E-02
  0.249511861438E-02  0.265989833307E-02  0.283555117796E-02  0.302279338371E-02  0.322238819574E-02
  0.343514893276E-02  0.366194224556E-02  0.390369158438E-02  0.416138088748E-02  0.443605850474E-02
  0.472884137039E-02  0.504091944006E-02  0.537356040804E-02  0.572811472152E-02  0.610602090941E-02
  0.650881124425E-02  0.693811775662E-02  0.739567862243E-02  0.788334494442E-02  0.840308795009E-02
  0.895700662925E-02  0.954733583553E-02  0.101764548768E-01  0.108468966206E-01  0.115613571417E-01
  0.123227059388E-01  0.131339967504E-01  0.139984789971E-01  0.149196098811E-01  0.159010671738E-01
  0.169467627192E-01  0.180608566867E-01  0.192477726008E-01  0.205122131782E-01  0.218591770008E-01
  0.232939760518E-01  0.248222541397E-01  0.264500062330E-01  0.281835987259E-01  0.300297906490E-01
  0.319957558376E-01  0.340891060597E-01  0.363179151034E-01  0.386907438104E-01  0.412166660354E-01
  0.439052954959E-01  0.467668134660E-01  0.498119972483E-01  0.530522493402E-01  0.564996271879E-01
  0.601668733965E-01  0.640674462330E-01  0.682155502274E-01  0.726261666365E-01  0.773150834915E-01
  0.822989249006E-01  0.875951792194E-01  0.932222256414E-01  0.991993586840E-01  0.105546809969E+00
  0.112285766603E+00  0.119438385365E+00  0.127027801794E+00  0.135078133150E+00  0.143614474080E+00
  0.152662883674E+00  0.162250362439E+00  0.172404817533E+00  0.183155014406E+00  0.194530512822E+00
  0.206561584969E+00  0.219279113180E+00  0.232714464538E+00  0.246899339368E+00  0.261865590431E+00
  0.277645009320E+00  0.294269076406E+00  0.311768670394E+00  0.330173733439E+00  0.349512887580E+00
  0.369812998225E+00  0.391098680401E+00  0.413391743615E+00  0.436710571437E+00  0.461069432343E+00
  0.486477718985E+00  0.512939113975E+00  0.540450681460E+00  0.569001885335E+00  0.598573536923E+00
  0.629136677410E+00  0.660651403367E+00  0.693065647246E+00  0.726313929061E+00  0.760316100401E+00
  0.794976107596E+00  0.830180807236E+00  0.865798874248E+00  0.901679850249E+00  0.937653387741E+00
  0.973528753517E+00  0.100909466207E+01  0.104411951616E+01  0.107835213614E+01  0.111152306149E+01
  0.114334650538E+01  0.117352303540E+01  0.120174303766E+01  0.122769099733E+01  0.125105059168E+01
  0.127151054192E+01  0.128877110390E+01  0.130255099418E+01  0.131259444621E+01  0.131867797188E+01
  0.132061626927E+01  0.131826657418E+01  0.131153061019E+01  0.130035316571E+01  0.128471623668E+01
  0.126462765139E+01  0.124010317397E+01  0.121114131230E+01  0.117769048454E+01  0.113960888020E+01
  0.109665770965E+01  0.104880828879E+01  0.996189292695E+00  0.938942443187E+00  0.000000000000E+00
  0.000000000000E+00  0.000000000000E+00  0.000000000000E+00  0.000000000000E+00  0.000000000000E+00
  0.000000000000E+00  0.000000000000E+00  0.000000000000E+00  0.000000000000E+00  0.000000000000E+00
  0.000000000000E+00  0.000000000000E+00  0.000000000000E+00  0.000000000000E+00  0.000000000000E+00
  0.000000000000E+00  0.000000000000E+00  0.000000000000E+00  0.000000000000E+00  0.000000000000E+00
  0.000000000000E+00  0.000000000000E+00  0.000000000000E+00  0.000000000000E+00  0.000000000000E+00
  0.000000000000E+00  0.000000000000E+00  0.000000000000E+00  0.000000000000E+00  0.000000000000E+00
  0.000000000000E+00  0.000000000000E+00  0.000000000000E+00  0.000000000000E+00  0.000000000000E+00
  0.000000000000E+00  0.000000000000E+00  0.000000000000E+00  0.000000000000E+00  0.000000000000E+00
  0.000000000000E+00  0.000000000000E+00  0.000000000000E+00  0.000000000000E+00  0.000000000000E+00
  0.000000000000E+00  0.000000000000E+00  0.000000000000E+00  0.000000000000E+00  0.000000000000E+00
 ae wavefunction
 -0.622189143390E-06 -0.659970896281E-06 -0.699852829513E-06 -0.741963237498E-06 -0.786437784926E-06
 -0.833419970266E-06 -0.883061618416E-06 -0.935523393370E-06 -0.990975358700E-06 -0.104959755503E-05
 -0.111158062668E-05 -0.117712648037E-05 -0.124644898485E-05 -0.131977471529E-05 -0.139734374661E-05
 -0.147941048955E-05 -0.156624458588E-05 -0.165813185676E-05 -0.175537530940E-05 -0.185829620861E-05
 -0.196723521681E-05 -0.208255360386E-05 -0.220463453334E-05 -0.233388443232E-05 -0.247073444537E-05
 -0.261564198249E-05 -0.276909236421E-05 -0.293160057190E-05 -0.310371310903E-05 -0.328600998188E-05
 -0.347910680400E-05 -0.368365703963E-05 -0.390035438503E-05 -0.412993530646E-05 -0.437318173809E-05
 -0.463092395399E-05 -0.490404362376E-05 -0.519347706440E-05 -0.550021870087E-05 -0.582532474940E-05
 -0.616991713737E-05 -0.653518767489E-05 -0.692240249594E-05 -0.733290678512E-05 -0.776812980837E-05
 -0.822959026895E-05 -0.871890200811E-05 -0.923778007361E-05 -0.978804717860E-05 -0.103716405819E-04
 -0.109906194058E-04 -0.116471724289E-04 -0.123436263873E-04 -0.130824548005E-04 -0.138662873815E-04
 -0.146979200383E-04 -0.155803255378E-04 -0.165166648444E-04 -0.175102992003E-04 -0.185648029796E-04
 -0.196839773743E-04 -0.208718649655E-04 -0.221327652308E-04 -0.234712510538E-04 -0.248921862999E-04
 -0.264007445195E-04 -0.280024288725E-04 -0.297030933001E-04 -0.315089651204E-04 -0.334266690074E-04
 -0.354632525628E-04 -0.376262135224E-04 -0.399235287060E-04 -0.423636848099E-04 -0.449557112159E-04
 -0.477092148710E-04 -0.506344174242E-04 -0.537421947282E-04 -0.570441188837E-04 -0.605525029628E-04
 -0.642804486126E-04 -0.682418966582E-04 -0.724516809980E-04 -0.769255858807E-04 -0.816804068619E-04
 -0.867340156291E-04 -0.921054289652E-04 -0.978148820727E-04 -0.103883906577E-03 -0.110335413445E-03
 -0.117193781188E-03 -0.124484949615E-03 -0.132236519532E-03 -0.140477858711E-03 -0.149240214552E-03
 -0.158556833829E-03 -0.168463089950E-03 -0.178996618219E-03 -0.190197459555E-03 -0.202108213196E-03
 -0.214774198959E-03 -0.228243629580E-03 -0.242567793794E-03 -0.257801250787E-03 -0.274002036669E-03
 -0.291231883727E-03 -0.309556453249E-03 -0.329045582600E-03 -0.349773547532E-03 -0.371819340562E-03
 -0.395266966332E-03 -0.420205755030E-03 -0.446730694803E-03 -0.474942784358E-03 -0.504949406912E-03
 -0.536864726569E-03 -0.570810108652E-03 -0.606914565080E-03 -0.645315226388E-03 -0.686157841803E-03
 -0.729597308900E-03 -0.775798234575E-03 -0.824935528921E-03 -0.877195033884E-03 -0.932774188553E-03
 -0.991882732983E-03 -0.105474345268E-02 -0.112159296579E-02 -0.119268255528E-02 -0.126827904838E-02
 -0.134866574566E-02 -0.143414340225E-02 -0.152503126386E-02 -0.162166816012E-02 -0.172441365810E-02
 -0.183364927884E-02 -0.194977977983E-02 -0.207323450640E-02 -0.220446881517E-02 -0.234396557271E-02
 -0.249223673265E-02 -0.264982499444E-02 -0.281730554724E-02 -0.299528790219E-02 -0.318441781654E-02
 -0.338537931290E-02 -0.359889679727E-02 -0.382573727891E-02 -0.406671269558E-02 -0.432268234733E-02
 -0.459455544192E-02 -0.488329375500E-02 -0.518991440768E-02 -0.551549276434E-02 -0.586116545288E-02
 -0.622813350944E-02 -0.661766564944E-02 -0.703110166603E-02 -0.746985595686E-02 -0.793542117931E-02
 -0.842937203381E-02 -0.895336917403E-02 -0.950916324210E-02 -0.100985990257E-01 -0.107236197336E-01
 -0.113862713837E-01 -0.120887072979E-01 -0.128331926962E-01 -0.136221093793E-01 -0.144579604898E-01
 -0.153433753387E-01 -0.162811142815E-01 -0.172740736264E-01 -0.183252905554E-01 -0.194379480343E-01
 -0.206153796866E-01 -0.218610746020E-01 -0.231786820471E-01 -0.245720160418E-01 -0.260450597612E-01
 -0.276019697181E-01 -0.292470796770E-01 -0.309849042450E-01 -0.328201420804E-01 -0.347576786530E-01
 -0.368025884855E-01 -0.389601367993E-01 -0.412357804785E-01 -0.436351682639E-01 -0.461641400776E-01
 -0.488287253717E-01 -0.516351403914E-01 -0.545897842266E-01 -0.576992335279E-01 -0.609702357449E-01
 -0.644097007460E-01 -0.680246906603E-01 -0.718224077858E-01 -0.758101803875E-01 -0.799954462126E-01
 -0.843857335345E-01 -0.889886395357E-01 -0.938118058305E-01 -0.988628909250E-01 -0.104149539407E+00
 -0.109679347658E+00 -0.115459825873E+00 -0.121498356179E+00 -0.127802146651E+00 -0.134378181011E+00
 -0.141233163829E+00 -0.148373461031E+00 -0.155805035554E+00 -0.163533377992E+00 -0.171563432104E+00
 -0.179899515080E+00 -0.188545232498E+00 -0.197503387930E+00 -0.206775887197E+00 -0.216363637340E+00
 -0.226266440388E+00 -0.236482882102E+00 -0.247010215914E+00 -0.257844242355E+00 -0.268979184376E+00
 -0.280407559009E+00 -0.292120045974E+00 -0.304105353937E+00 -0.316350085257E+00 -0.328838600259E+00
 -0.341552882237E+00 -0.354472404613E+00 -0.367574001905E+00 -0.380831746366E+00 -0.394216832294E+00
 -0.407697469994E+00 -0.421238791185E+00 -0.434802766820E+00 -0.448348137397E+00 -0.461830354006E+00
 -0.475201526651E+00 -0.488410374923E+00 -0.501402175934E+00 -0.514118706427E+00 -0.526498180561E+00
 -0.538475191693E+00 -0.549980673728E+00 -0.560941903274E+00 -0.571282565985E+00 -0.580922905752E+00
 -0.589779966207E+00 -0.597767918925E+00 -0.604798461592E+00 -0.610781264099E+00 -0.615624444604E+00
 -0.619235067612E+00 -0.621519663809E+00 -0.622384776694E+00 -0.621737540438E+00 -0.619486291092E+00
 -0.615541210337E+00 -0.609814998386E+00 -0.602223571695E+00 -0.592686780780E+00 -0.581129143417E+00
 -0.567480589539E+00 -0.551677213854E+00 -0.533662032952E+00 -0.513385743651E+00 -0.490807479052E+00
 -0.465895558562E+00 -0.438628227762E+00 -0.408994382908E+00 -0.376994274340E+00 -0.342640181480E+00
 -0.305957051171E+00 -0.266983088995E+00 -0.225770292664E+00 -0.182384913883E+00 -0.136907835557E+00
 -0.894348501678E-01 -0.400768265781E-01  0.110402447828E-01  0.637753339885E-01  0.117972580750E+00
  0.173461624007E+00  0.230058041059E+00  0.287563886625E+00  0.345768333829E+00  0.404448447852E+00
  0.463370173098E+00  0.522289691086E+00  0.580955390184E+00  0.639110741224E+00  0.696498207271E+00
  0.752863672422E+00  0.807959512769E+00  0.861543023009E+00  0.913367704986E+00  0.963169996476E+00
  0.101066037269E+01  0.105552706772E+01  0.109745062463E+01  0.113611930597E+01  0.117123823165E+01
  0.120253248653E+01  0.122974756958E+01  0.125264964041E+01  0.127102641637E+01  0.128468869128E+01
  0.129347214312E+01  0.129723906855E+01  0.129587975619E+01  0.128931332805E+01  0.127748797092E+01
  0.126038056419E+01  0.123799575521E+01  0.121036454995E+01  0.117754250039E+01  0.113960756600E+01
  0.109665770965E+01  0.104880828879E+01  0.996189292695E+00  0.938942443187E+00  0.000000000000E+00
  0.000000000000E+00  0.000000000000E+00  0.000000000000E+00  0.000000000000E+00  0.000000000000E+00
  0.000000000000E+00  0.000000000000E+00  0.000000000000E+00  0.000000000000E+00  0.000000000000E+00
  0.000000000000E+00  0.000000000000E+00  0.000000000000E+00  0.000000000000E+00  0.000000000000E+00
  0.000000000000E+00  0.000000000000E+00  0.000000000000E+00  0.000000000000E+00  0.000000000000E+00
  0.000000000000E+00  0.000000000000E+00  0.000000000000E+00  0.000000000000E+00  0.000000000000E+00
  0.000000000000E+00  0.000000000000E+00  0.000000000000E+00  0.000000000000E+00  0.000000000000E+00
  0.000000000000E+00  0.000000000000E+00  0.000000000000E+00  0.000000000000E+00  0.000000000000E+00
  0.000000000000E+00  0.000000000000E+00  0.000000000000E+00  0.000000000000E+00  0.000000000000E+00
  0.000000000000E+00  0.000000000000E+00  0.000000000000E+00  0.000000000000E+00  0.000000000000E+00
  0.000000000000E+00  0.000000000000E+00  0.000000000000E+00  0.000000000000E+00  0.000000000000E+00
 End of Dataset
