Cr Te Pt S                              
   1.00000000000000     
     8.6717790896029499    0.0000000000000000    0.0000000000000000
    -4.3358296767500377    7.5098339814490425    0.0000000000000000
     0.0025525256388807    0.0012353665493878   11.2162548790924230
   Cr   Te   Pt   S 
     9     8     4    18
Direct
  0.0021090199591711  0.0017615989726778  0.6201471900915791
  0.0020140553512675  0.3348378238956400  0.6103127228698568
  0.0019828156067021  0.6686197173294559  0.6102274976889177
  0.3352858324717189  0.0019101914949573  0.6102651821766898
  0.3352610162381993  0.3348519136828045  0.6103557281605276
  0.3354128559080891  0.6684563489187241  0.6008444725125628
  0.6690757998382821  0.0018767132891000  0.6101282040456582
  0.6687762109871400  0.3351079540445312  0.6093270366085477
  0.6690350280904198  0.6686264171286496  0.6101135873269996
  0.3449839467274245  0.1724872448491439  0.2176593495132551
  0.1611570187455200  0.3221564764704183  0.0035395689399991
  0.3336490472713081  0.6669494927630808  0.2137446877481466
  0.1610715899872588  0.8391229569602814  0.0035321571408247
  0.8276551022238792  0.1722906256565722  0.2177916793623353
  0.6669969720972873  0.3335824911474887  0.9999875130900975
  0.8277693971289821  0.6555945445367328  0.2178440089408866
  0.6784839880370228  0.8392598038013617  0.0034756070779665
  0.0002065365876334  0.0001775274354898  0.1207607734954053
  0.0001231564455395  0.5001146680241106  0.1056958887824280
  0.5001780192510239  0.0001230975990154  0.1054267889831948
  0.5001839124149612  0.5001440900138547  0.1055286312683137
  0.2291033754212535  0.1152784862097960  0.7490027833017550
  0.2176501203261765  0.1096117182109850  0.4817566408893157
  0.2274118712263800  0.4524743444396648  0.7394146843281106
  0.2217842490675181  0.4410347287871090  0.4723320063645886
  0.2273780265185295  0.7764469600089114  0.7393204209644679
  0.2217755426169887  0.7822048088267834  0.4722246049635999
  0.5575106667495291  0.1124825140578736  0.7437647397909046
  0.5575466656607659  0.1126614192610873  0.4749203933131341
  0.5575242602666108  0.4464856708791345  0.7438156406382532
  0.5574584379588146  0.4463084934814816  0.4749664235459363
  0.5514476896935392  0.7764632435175542  0.7391523486244438
  0.5627956188337180  0.7821096711741831  0.4720951630260686
  0.8884711511780097  0.1151928695521320  0.7489294751277242
  0.8945706395003725  0.1096526998382643  0.4816226356774607
  0.8912787817270811  0.4464064609421001  0.7438953197854943
  0.8913884488948511  0.4463833770896954  0.4749786755801040
  0.8884338337828837  0.7746740752841177  0.7488894920199911
  0.8944702958599748  0.7863413660136089  0.4815603345666233
 
  0.00000000E+00  0.00000000E+00  0.00000000E+00
  0.00000000E+00  0.00000000E+00  0.00000000E+00
  0.00000000E+00  0.00000000E+00  0.00000000E+00
  0.00000000E+00  0.00000000E+00  0.00000000E+00
  0.00000000E+00  0.00000000E+00  0.00000000E+00
  0.00000000E+00  0.00000000E+00  0.00000000E+00
  0.00000000E+00  0.00000000E+00  0.00000000E+00
  0.00000000E+00  0.00000000E+00  0.00000000E+00
  0.00000000E+00  0.00000000E+00  0.00000000E+00
  0.00000000E+00  0.00000000E+00  0.00000000E+00
  0.00000000E+00  0.00000000E+00  0.00000000E+00
  0.00000000E+00  0.00000000E+00  0.00000000E+00
  0.00000000E+00  0.00000000E+00  0.00000000E+00
  0.00000000E+00  0.00000000E+00  0.00000000E+00
  0.00000000E+00  0.00000000E+00  0.00000000E+00
  0.00000000E+00  0.00000000E+00  0.00000000E+00
  0.00000000E+00  0.00000000E+00  0.00000000E+00
  0.00000000E+00  0.00000000E+00  0.00000000E+00
  0.00000000E+00  0.00000000E+00  0.00000000E+00
  0.00000000E+00  0.00000000E+00  0.00000000E+00
  0.00000000E+00  0.00000000E+00  0.00000000E+00
  0.00000000E+00  0.00000000E+00  0.00000000E+00
  0.00000000E+00  0.00000000E+00  0.00000000E+00
  0.00000000E+00  0.00000000E+00  0.00000000E+00
  0.00000000E+00  0.00000000E+00  0.00000000E+00
  0.00000000E+00  0.00000000E+00  0.00000000E+00
  0.00000000E+00  0.00000000E+00  0.00000000E+00
  0.00000000E+00  0.00000000E+00  0.00000000E+00
  0.00000000E+00  0.00000000E+00  0.00000000E+00
  0.00000000E+00  0.00000000E+00  0.00000000E+00
  0.00000000E+00  0.00000000E+00  0.00000000E+00
  0.00000000E+00  0.00000000E+00  0.00000000E+00
  0.00000000E+00  0.00000000E+00  0.00000000E+00
  0.00000000E+00  0.00000000E+00  0.00000000E+00
  0.00000000E+00  0.00000000E+00  0.00000000E+00
  0.00000000E+00  0.00000000E+00  0.00000000E+00
  0.00000000E+00  0.00000000E+00  0.00000000E+00
  0.00000000E+00  0.00000000E+00  0.00000000E+00
  0.00000000E+00  0.00000000E+00  0.00000000E+00
