Cr Te Pt S                              
   1.00000000000000     
    11.9662224751081077    0.0000000000000000    0.0000000000000000
    -5.9840227922681857   10.3626336888413988    0.0000000000000000
    -0.0001447534959395   -0.0017150663101996   11.4955213271377890
   Cr   Te   Pt   S 
    16    18     9    32
Direct
  0.0033820235083510  0.0030042730232722  0.6345509213370377
  0.0040351640570080  0.2529388813106479  0.6174648445023649
  0.0035764494105237  0.5031100363144603  0.6033731265932971
  0.0039615593453988  0.7537212393558903  0.6166975597043276
  0.2528277610118437  0.0025628152141337  0.6171757237772795
  0.2528742041644136  0.2529904273262673  0.6177733960996221
  0.2530403275221715  0.5023693172809729  0.5949108260841243
  0.2530561568278173  0.7534246381864804  0.5942513817327466
  0.5033053910208025  0.0028974563461190  0.6024188949412164
  0.5030471573625661  0.2528338299608350  0.6102612806210672
  0.5032091066984208  0.5030871553884282  0.6028640026531775
  0.5041936397235105  0.7534311892227521  0.5932531788773900
  0.7535856702567116  0.0025273961492687  0.6160421425046394
  0.7536634461027063  0.2528021846135360  0.6100312937800112
  0.7535415550827054  0.5033390194100846  0.6099512150459532
  0.7536297929377440  0.7536891639458716  0.6158906181602077
  0.2284056533233354  0.1138201019187477  0.2346629774222322
  0.1080515283099714  0.2162372332610545  0.9962437940237621
  0.2259321434423569  0.4517911031643465  0.2240454580764251
  0.1036949792245352  0.5515388486695940  0.9863121847228697
  0.2258457646774517  0.7743347404242584  0.2235977224642482
  0.1079357960345035  0.8918914957167203  0.9957342951853860
  0.5547936065433774  0.1090984546476648  0.2296618475277938
  0.4443766346873517  0.2223455560325718  0.9934583600855049
  0.5551162771317379  0.4457034408329577  0.2299183710616219
  0.4471782386781982  0.5512497285245530  0.9857802003874525
  0.5488406600642080  0.7744700469682257  0.2227917653265905
  0.4473929124020657  0.8957411607788401  0.9853305008797335
  0.8848418865215706  0.1134240850594921  0.2343881459952328
  0.7781415833178329  0.2227924662720184  0.9932189355276648
  0.8902202978300906  0.4452777547463143  0.2305042640834998
  0.7778453080066754  0.5550794033376718  0.9931197998450116
  0.8851567787481613  0.7712957910935785  0.2342081048229687
  0.7843466125397356  0.8921506905610812  0.9950290199430967
  0.9998516471317487  0.9998541832567938  0.1224823555410808
  0.9994189657582737  0.3332765236161279  0.1111323199354928
  0.9994258642169243  0.6660906215766929  0.1105342192389784
  0.3337088346002020  0.0003659083928724  0.1101876860507502
  0.3337155459971655  0.3332550357775830  0.1109240103389908
  0.3331417309888849  0.6665336722488462  0.0955995273985621
  0.6666016145144482  0.0004150996629306  0.1092744685019724
  0.6666781373208437  0.3332972453475023  0.1128957072867820
  0.6666235722449159  0.6661225239114046  0.1094114103891641
  0.1773366052046228  0.0897771682023958  0.7530829527025276
  0.1612074593098143  0.0821759899119954  0.4994158228666450
  0.1758099577512908  0.3478519294767821  0.7378176992454115
  0.1644463735589312  0.3247533120747619  0.4822733871469183
  0.1755103800219970  0.5894125363591272  0.7215434257792950
  0.1654229867686539  0.5838334344694047  0.4677364471979573
  0.1757209565178499  0.8306146067764075  0.7369900384591404
  0.1644489196898320  0.8423551695849554  0.4814865970451692
  0.4242682480284969  0.0846399660664829  0.7374898199389079
  0.4142217276677727  0.0865726077747908  0.4822480566413532
  0.4244594256755150  0.3422200685608914  0.7379027282821795
  0.4140659981250181  0.3303792567214927  0.4826161253238794
  0.4180039314263837  0.5898018942887546  0.7208409319952835
  0.4216953668780974  0.5835179851204018  0.4670854714043031
  0.4178571862191447  0.8311178666846430  0.7202627524834213
  0.4219805438705961  0.8408651297128031  0.4666610405549818
  0.6644223012060735  0.0843815957435865  0.7369826682322866
  0.6757846504105061  0.0866616795939663  0.4817510457509186
  0.6702126012131231  0.3363753459839103  0.7388725180780256
  0.6699638240823305  0.3361689802673808  0.4815616661875453
  0.6646724268701689  0.5828236533931417  0.7370845009937028
  0.6754234964642265  0.5914724581860682  0.4818129062625047
  0.6587323811505854  0.8306381374665150  0.7358371116182809
  0.6817701181818592  0.8422188748286672  0.4803129566700122
  0.9157916934123733  0.0896319683841753  0.7524643892449987
  0.9252940511163388  0.0823125533298565  0.4986579320807536
  0.9214733716712331  0.3418112493363878  0.7378902717070588
  0.9204075038111625  0.3307488816261923  0.4825809350722992
  0.9215119259697744  0.5825913260292310  0.7375731488093180
  0.9201469901061188  0.5918269250301407  0.4822924896895771
  0.9159497245325952  0.8286549149660871  0.7520963360702524
  0.9251541763409037  0.8457942026220593  0.4981737822085321
 
  0.00000000E+00  0.00000000E+00  0.00000000E+00
  0.00000000E+00  0.00000000E+00  0.00000000E+00
  0.00000000E+00  0.00000000E+00  0.00000000E+00
  0.00000000E+00  0.00000000E+00  0.00000000E+00
  0.00000000E+00  0.00000000E+00  0.00000000E+00
  0.00000000E+00  0.00000000E+00  0.00000000E+00
  0.00000000E+00  0.00000000E+00  0.00000000E+00
  0.00000000E+00  0.00000000E+00  0.00000000E+00
  0.00000000E+00  0.00000000E+00  0.00000000E+00
  0.00000000E+00  0.00000000E+00  0.00000000E+00
  0.00000000E+00  0.00000000E+00  0.00000000E+00
  0.00000000E+00  0.00000000E+00  0.00000000E+00
  0.00000000E+00  0.00000000E+00  0.00000000E+00
  0.00000000E+00  0.00000000E+00  0.00000000E+00
  0.00000000E+00  0.00000000E+00  0.00000000E+00
  0.00000000E+00  0.00000000E+00  0.00000000E+00
  0.00000000E+00  0.00000000E+00  0.00000000E+00
  0.00000000E+00  0.00000000E+00  0.00000000E+00
  0.00000000E+00  0.00000000E+00  0.00000000E+00
  0.00000000E+00  0.00000000E+00  0.00000000E+00
  0.00000000E+00  0.00000000E+00  0.00000000E+00
  0.00000000E+00  0.00000000E+00  0.00000000E+00
  0.00000000E+00  0.00000000E+00  0.00000000E+00
  0.00000000E+00  0.00000000E+00  0.00000000E+00
  0.00000000E+00  0.00000000E+00  0.00000000E+00
  0.00000000E+00  0.00000000E+00  0.00000000E+00
  0.00000000E+00  0.00000000E+00  0.00000000E+00
  0.00000000E+00  0.00000000E+00  0.00000000E+00
  0.00000000E+00  0.00000000E+00  0.00000000E+00
  0.00000000E+00  0.00000000E+00  0.00000000E+00
  0.00000000E+00  0.00000000E+00  0.00000000E+00
  0.00000000E+00  0.00000000E+00  0.00000000E+00
  0.00000000E+00  0.00000000E+00  0.00000000E+00
  0.00000000E+00  0.00000000E+00  0.00000000E+00
  0.00000000E+00  0.00000000E+00  0.00000000E+00
  0.00000000E+00  0.00000000E+00  0.00000000E+00
  0.00000000E+00  0.00000000E+00  0.00000000E+00
  0.00000000E+00  0.00000000E+00  0.00000000E+00
  0.00000000E+00  0.00000000E+00  0.00000000E+00
  0.00000000E+00  0.00000000E+00  0.00000000E+00
  0.00000000E+00  0.00000000E+00  0.00000000E+00
  0.00000000E+00  0.00000000E+00  0.00000000E+00
  0.00000000E+00  0.00000000E+00  0.00000000E+00
  0.00000000E+00  0.00000000E+00  0.00000000E+00
  0.00000000E+00  0.00000000E+00  0.00000000E+00
  0.00000000E+00  0.00000000E+00  0.00000000E+00
  0.00000000E+00  0.00000000E+00  0.00000000E+00
  0.00000000E+00  0.00000000E+00  0.00000000E+00
  0.00000000E+00  0.00000000E+00  0.00000000E+00
  0.00000000E+00  0.00000000E+00  0.00000000E+00
  0.00000000E+00  0.00000000E+00  0.00000000E+00
  0.00000000E+00  0.00000000E+00  0.00000000E+00
  0.00000000E+00  0.00000000E+00  0.00000000E+00
  0.00000000E+00  0.00000000E+00  0.00000000E+00
  0.00000000E+00  0.00000000E+00  0.00000000E+00
  0.00000000E+00  0.00000000E+00  0.00000000E+00
  0.00000000E+00  0.00000000E+00  0.00000000E+00
  0.00000000E+00  0.00000000E+00  0.00000000E+00
  0.00000000E+00  0.00000000E+00  0.00000000E+00
  0.00000000E+00  0.00000000E+00  0.00000000E+00
  0.00000000E+00  0.00000000E+00  0.00000000E+00
  0.00000000E+00  0.00000000E+00  0.00000000E+00
  0.00000000E+00  0.00000000E+00  0.00000000E+00
  0.00000000E+00  0.00000000E+00  0.00000000E+00
  0.00000000E+00  0.00000000E+00  0.00000000E+00
  0.00000000E+00  0.00000000E+00  0.00000000E+00
  0.00000000E+00  0.00000000E+00  0.00000000E+00
  0.00000000E+00  0.00000000E+00  0.00000000E+00
  0.00000000E+00  0.00000000E+00  0.00000000E+00
  0.00000000E+00  0.00000000E+00  0.00000000E+00
  0.00000000E+00  0.00000000E+00  0.00000000E+00
  0.00000000E+00  0.00000000E+00  0.00000000E+00
  0.00000000E+00  0.00000000E+00  0.00000000E+00
  0.00000000E+00  0.00000000E+00  0.00000000E+00
  0.00000000E+00  0.00000000E+00  0.00000000E+00
