Cr Te Pt S                              
   1.00000000000000     
     8.6717790896029499    0.0000000000000000    0.0000000000000000
    -4.3358296767500377    7.5098339814490425    0.0000000000000000
     0.0076575769166420    0.0037060996481633   33.6487646372772673
   Cr   Te   Pt   S 
    18    16     8    36
Direct
  0.0023455781368351  0.0018869765373160  0.2361680118703685
  0.0026576860744546  0.0020108790084153  0.5690308262139099
  0.0023881999513505  0.3351314756085380  0.2327423622477436
  0.0024586979357124  0.3354737822365656  0.5667173226370366
  0.0023854709653367  0.6686928905305564  0.2327139232555765
  0.0024619626764603  0.6683538531591293  0.5667033393403281
  0.3355807991205489  0.0018981545149862  0.2327228376541882
  0.3363274701434736  0.0022466397175685  0.5667217149934473
  0.3355838363583036  0.3351261826963875  0.2327507552384425
  0.3363316144443736  0.3354554372594895  0.5667305672244113
  0.3357240986369349  0.6685781679622446  0.2294687960330693
  0.3360458367046195  0.6687141836850783  0.5656492966416851
  0.6691725464763869  0.0019169636253944  0.2326687318604641
  0.6692431166608268  0.0022482842164166  0.5666875732236969
  0.6690457983626391  0.3352432653649446  0.2326285793844045
  0.6693597764710061  0.3353698137716034  0.5657860077261696
  0.6691759181955499  0.6686937536856885  0.2326691276368699
  0.6692416847807185  0.6683633272800236  0.5666825501465571
  0.3404258310128815  0.1701877023804714  0.1024732501117658
  0.3459672083866591  0.1730277834479103  0.4349928084241089
  0.1644502931078179  0.3288883131109153  0.0312875417871344
  0.1615904502545217  0.3222737313596095  0.3635733778879106
  0.3336385911662442  0.6669043366173416  0.1014967652859543
  0.3341696868746438  0.6672215482434911  0.4339134181605339
  0.1643644877041780  0.8355796709020266  0.0312726106167599
  0.1615238160957023  0.8395135744950302  0.3635699105896815
  0.8298615709793630  0.1699940416629580  0.1025372119373892
  0.8279439755511993  0.1728147572047432  0.4350332251068003
  0.6670357791454767  0.3335922760373004  0.0294951443337193
  0.6675240136860032  0.3338781002463987  0.3626187957882790
  0.8299541469300296  0.6599995424868690  0.1025673479543768
  0.8280359233156075  0.6554013713197457  0.4350487184735150
  0.6715866909726184  0.8357600725580164  0.0312414339887913
  0.6791792398625088  0.8396563205283312  0.3635496909918510
  0.0001185373599490  0.0000795729687068  0.0693612928028388
  0.0007278325973226  0.0004624105962977  0.4028105682772138
 -0.0011000712898637  0.4994946817932476  0.0669994481227322
  0.0008461418944543  0.5005115675617300  0.3976202254321227
  0.5007880433780041  0.0013077191155468  0.0669070779524610
  0.5006000442969014  0.0002260819435457  0.3975348174886451
  0.5008147549559060  0.4995470307856819  0.0669374234677086
  0.5006148677152381  0.5005380768194455  0.3975606084285730
  0.2295464924837792  0.1154558672188174  0.2790337959301308
  0.2281803785342148  0.1147675839874772  0.6121814970306347
  0.2178312086862866  0.1096707115762166  0.1900689290807056
  0.2196679185080262  0.1105362071668241  0.5235196142015779
  0.2278478793065333  0.4529370320220364  0.2757772206071769
  0.2256883856517427  0.4481487870386252  0.6108247029713848
  0.2220031973702718  0.4410799988807012  0.1866775430379648
  0.2237174184492336  0.4440002538968546  0.5215187364174318
  0.2278327678720815  0.7763674040420379  0.2757438262620612
  0.2256729183490214  0.7789210368150853  0.6108161443287935
  0.2220242635941353  0.7823232545724349  0.1866472038759902
  0.2237351880056523  0.7810751338044114  0.5215020979268588
  0.5575666662745411  0.1122575936789671  0.2773041884720209
  0.5588961084807282  0.1144798978963682  0.6109237701891612
  0.5580786790123454  0.1133900112469529  0.1876692458830404
  0.5575454130483183  0.1118001571839122  0.5213735698337564
  0.5576172045681105  0.4467647622405743  0.2773214130640417
  0.5589124776753764  0.4458053857372681  0.6109258795593019
  0.5580305277792365  0.4460899930794009  0.1876799575567935
  0.5575174136416449  0.4470888776520521  0.5213712981571540
  0.5513787901340487  0.7764090891824748  0.2756894311437000
  0.5565566543061640  0.7789602627415710  0.6107963206423954
  0.5631330793654525  0.7822793130227900  0.1865904045199001
  0.5607000324373342  0.7810380656248375  0.5214645940156970
  0.8885779760938013  0.1154195624707698  0.2790041005323487
  0.8897887040511988  0.1147629474734310  0.6121590658334071
  0.8948426964089646  0.1097322372722272  0.1900170685616555
  0.8943281886952912  0.1105858728084793  0.5234823478928764
  0.8918586318037954  0.4466799722016275  0.2773426963241631
  0.8901345036621915  0.4457673764872599  0.6109313561340909
  0.8910033565741882  0.4461778563626034  0.1876934745424333
  0.8929974584109266  0.4471550697438309  0.5213647724279584
  0.8886028526797221  0.7745728545210887  0.2789906015046403
  0.8897863788412300  0.7763773816129151  0.6121501439560475
  0.8948068166341164  0.7865494727523596  0.1899943676645147
  0.8943088728527935  0.7851059917385136  0.5234660334374039
 
  0.00000000E+00  0.00000000E+00  0.00000000E+00
  0.00000000E+00  0.00000000E+00  0.00000000E+00
  0.00000000E+00  0.00000000E+00  0.00000000E+00
  0.00000000E+00  0.00000000E+00  0.00000000E+00
  0.00000000E+00  0.00000000E+00  0.00000000E+00
  0.00000000E+00  0.00000000E+00  0.00000000E+00
  0.00000000E+00  0.00000000E+00  0.00000000E+00
  0.00000000E+00  0.00000000E+00  0.00000000E+00
  0.00000000E+00  0.00000000E+00  0.00000000E+00
  0.00000000E+00  0.00000000E+00  0.00000000E+00
  0.00000000E+00  0.00000000E+00  0.00000000E+00
  0.00000000E+00  0.00000000E+00  0.00000000E+00
  0.00000000E+00  0.00000000E+00  0.00000000E+00
  0.00000000E+00  0.00000000E+00  0.00000000E+00
  0.00000000E+00  0.00000000E+00  0.00000000E+00
  0.00000000E+00  0.00000000E+00  0.00000000E+00
  0.00000000E+00  0.00000000E+00  0.00000000E+00
  0.00000000E+00  0.00000000E+00  0.00000000E+00
  0.00000000E+00  0.00000000E+00  0.00000000E+00
  0.00000000E+00  0.00000000E+00  0.00000000E+00
  0.00000000E+00  0.00000000E+00  0.00000000E+00
  0.00000000E+00  0.00000000E+00  0.00000000E+00
  0.00000000E+00  0.00000000E+00  0.00000000E+00
  0.00000000E+00  0.00000000E+00  0.00000000E+00
  0.00000000E+00  0.00000000E+00  0.00000000E+00
  0.00000000E+00  0.00000000E+00  0.00000000E+00
  0.00000000E+00  0.00000000E+00  0.00000000E+00
  0.00000000E+00  0.00000000E+00  0.00000000E+00
  0.00000000E+00  0.00000000E+00  0.00000000E+00
  0.00000000E+00  0.00000000E+00  0.00000000E+00
  0.00000000E+00  0.00000000E+00  0.00000000E+00
  0.00000000E+00  0.00000000E+00  0.00000000E+00
  0.00000000E+00  0.00000000E+00  0.00000000E+00
  0.00000000E+00  0.00000000E+00  0.00000000E+00
  0.00000000E+00  0.00000000E+00  0.00000000E+00
  0.00000000E+00  0.00000000E+00  0.00000000E+00
  0.00000000E+00  0.00000000E+00  0.00000000E+00
  0.00000000E+00  0.00000000E+00  0.00000000E+00
  0.00000000E+00  0.00000000E+00  0.00000000E+00
  0.00000000E+00  0.00000000E+00  0.00000000E+00
  0.00000000E+00  0.00000000E+00  0.00000000E+00
  0.00000000E+00  0.00000000E+00  0.00000000E+00
  0.00000000E+00  0.00000000E+00  0.00000000E+00
  0.00000000E+00  0.00000000E+00  0.00000000E+00
  0.00000000E+00  0.00000000E+00  0.00000000E+00
  0.00000000E+00  0.00000000E+00  0.00000000E+00
  0.00000000E+00  0.00000000E+00  0.00000000E+00
  0.00000000E+00  0.00000000E+00  0.00000000E+00
  0.00000000E+00  0.00000000E+00  0.00000000E+00
  0.00000000E+00  0.00000000E+00  0.00000000E+00
  0.00000000E+00  0.00000000E+00  0.00000000E+00
  0.00000000E+00  0.00000000E+00  0.00000000E+00
  0.00000000E+00  0.00000000E+00  0.00000000E+00
  0.00000000E+00  0.00000000E+00  0.00000000E+00
  0.00000000E+00  0.00000000E+00  0.00000000E+00
  0.00000000E+00  0.00000000E+00  0.00000000E+00
  0.00000000E+00  0.00000000E+00  0.00000000E+00
  0.00000000E+00  0.00000000E+00  0.00000000E+00
  0.00000000E+00  0.00000000E+00  0.00000000E+00
  0.00000000E+00  0.00000000E+00  0.00000000E+00
  0.00000000E+00  0.00000000E+00  0.00000000E+00
  0.00000000E+00  0.00000000E+00  0.00000000E+00
  0.00000000E+00  0.00000000E+00  0.00000000E+00
  0.00000000E+00  0.00000000E+00  0.00000000E+00
  0.00000000E+00  0.00000000E+00  0.00000000E+00
  0.00000000E+00  0.00000000E+00  0.00000000E+00
  0.00000000E+00  0.00000000E+00  0.00000000E+00
  0.00000000E+00  0.00000000E+00  0.00000000E+00
  0.00000000E+00  0.00000000E+00  0.00000000E+00
  0.00000000E+00  0.00000000E+00  0.00000000E+00
  0.00000000E+00  0.00000000E+00  0.00000000E+00
  0.00000000E+00  0.00000000E+00  0.00000000E+00
  0.00000000E+00  0.00000000E+00  0.00000000E+00
  0.00000000E+00  0.00000000E+00  0.00000000E+00
  0.00000000E+00  0.00000000E+00  0.00000000E+00
  0.00000000E+00  0.00000000E+00  0.00000000E+00
  0.00000000E+00  0.00000000E+00  0.00000000E+00
  0.00000000E+00  0.00000000E+00  0.00000000E+00
