Cr Te Pt S                              
   1.00000000000000     
    11.9662224751081077    0.0000000000000000    0.0000000000000000
    -5.9840227922681866   10.3626336888414006    0.0000000000000000
    -0.0004342604878185   -0.0051451989305988   34.4865639814133615
   Cr   Te   Pt   S 
    32    36    18    64
Direct
  0.0037912067956063  0.0033334830488424  0.2403248216208544
  0.0036347682462069  0.0031276501041121  0.5729155869376638
  0.0040099314506774  0.2529503568095127  0.2346907012664759
  0.0036395222789765  0.2528981027804190  0.5687810753757757
  0.0039498287916880  0.5033724510761376  0.2297321746494768
  0.0032509982472343  0.5029331869427131  0.5656296635662857
  0.0040140267904223  0.7539640784945504  0.2343585974034925
  0.0036046135914135  0.7534008402631326  0.5685581858808221
  0.2532400066316562  0.0032151479272494  0.2345777336190641
  0.2534425803508665  0.0032290346728559  0.5687728430147835
  0.2532432105429286  0.2529442348939361  0.2348360415151724
  0.2534485122817406  0.2529009898726701  0.5689243888347790
  0.2534836615764067  0.5026650392269083  0.2269617962805605
  0.2534381598271493  0.5027051498138984  0.5654296251072732
  0.2534595640454743  0.7537093000591503  0.2266471394507756
  0.2534347424133049  0.7533624846466181  0.5653132418379174
  0.5036964627938423  0.0032552624690871  0.2292750622235755
  0.5038529950835459  0.0035883854894970  0.5655645609216451
  0.5035025468609156  0.2531932885901790  0.2320639888735782
  0.5035043577101802  0.2530832188500222  0.5657521000590818
  0.5036481953441352  0.5032991386924046  0.2294833254051796
  0.5038414428956851  0.5028940424532098  0.5656068401266130
  0.5045494258276131  0.7537078689254930  0.2262062950555704
  0.5041078680360697  0.7533674889632498  0.5651493554894278
  0.7542828296346059  0.0032260669623442  0.2340936874852394
  0.7540410404343753  0.0032964828271076  0.5684432890982738
  0.7539265812588650  0.2532294775775971  0.2319791410520528
  0.7537505856191714  0.2531133319087632  0.5656242170098530
  0.7539065118439291  0.5035342153814883  0.2319391862947109
  0.7537350007327056  0.5032745085006687  0.5655458047518832
  0.7542761709010022  0.7539700102397688  0.2340172572191202
  0.7540525552524968  0.7534082237438382  0.5683696756110562
  0.2280996801507086  0.1135115831374480  0.1044207382320325
  0.2274086922586792  0.1126290677532546  0.4404251433620950
  0.1087201017554270  0.2180206734430232  0.0255059115348274
  0.1071271911034739  0.2154981978966233  0.3611083559154751
  0.2239802536183591  0.4483060615442364  0.1026571253097156
  0.2253249284752759  0.4516077074619333  0.4373373254842956
  0.1084280474909681  0.5538293147425278  0.0229123648388671
  0.1025729418047086  0.5502565496084011  0.3577441789394319
  0.2239058984635512  0.7752899254154410  0.1025617919405368
  0.2252120167635628  0.7729438519042030  0.4370763208203702
  0.1086048955807369  0.8901267619251557  0.0253978264973227
  0.1069029916543856  0.8906862177081194  0.3608568045835967
  0.5553123948504017  0.1106777759177255  0.1033929630022757
  0.5538738005828233  0.1081418285101695  0.4386287133000293
  0.4436880883819347  0.2216675609072604  0.0239247735399601
  0.4423568563328290  0.2209441796265808  0.3600367782202684
  0.5555479909345182  0.4441154850968159  0.1034878265354857
  0.5543542386068357  0.4446831088179333  0.4387899621864886
  0.4447345753882088  0.5538420424244037  0.0227539891239891
  0.4455668216400691  0.5497659262834516  0.3574505258443087
  0.5512567628240500  0.7753983071049197  0.1024399100117645
  0.5471458561830315  0.7731282161030860  0.4367081517041227
  0.4447356383577942  0.8901221581869545  0.0226257630110664
  0.4458976281699739  0.8943947675129169  0.3572476757194923
  0.8846639605415053  0.1131905288538216  0.1044459359625664
  0.8831539607553799  0.1120185513634791  0.4402750586962528
  0.7776354856425370  0.2218424194408961  0.0239091264028460
  0.7775914044712983  0.2216165182020367  0.3599498973054761
  0.8878865316215683  0.4438031827615492  0.1036088236518063
  0.8885339928149107  0.4439836630744308  0.4390145980677608
  0.7774902120737113  0.5551502415273187  0.0239011314747511
  0.7771062950479766  0.5545372005261379  0.3598981034751486
  0.8849220561187106  0.7709167734033527  0.1044641504617372
  0.8835925880025007  0.7698695724779702  0.4401727373488628
  0.7812473093826405  0.8902774869817730  0.0252571435764034
  0.7831437732956242  0.8909877122067599  0.3604875007989289
  0.9994305798119507  0.9993902710890477  0.0672100339812016
  0.9986371109441309  0.9986910277539442  0.4030436841656999
  0.9990975462009422  0.3331941451737926  0.0640261090201534
  0.9984753888510961  0.3323141797167483  0.3994734176613673
  0.9990937525067012  0.6653561258328955  0.0639326767960301
  0.9984621634841169  0.6649795405899640  0.3991571001925567
  0.3336019779034557 -0.0002533609289500  0.0637758829592317
  0.3325102877459777 -0.0009545037768796  0.3989893684426585
  0.3336370628006403  0.3332613989223935  0.0639416794010059
  0.3325201261039512  0.3323099671627888  0.3993846688885049
  0.3328302216086323  0.6661250445633946  0.0617413356054787
  0.3319588694247843  0.6653492132542421  0.3940830267971245
  0.6657513308036032 -0.0002436051151352  0.0636579521942452
  0.6652551439372830 -0.0009320849121331  0.3985234611337560
  0.6662022280577092  0.3328225913455639  0.0637408695552943
  0.6654769643021741  0.3321747501720795  0.3995522135616504
  0.6657990859875605  0.6654097822639092  0.0637292327544672
  0.6652383644090271  0.6649923356741407  0.3986010456845978
  0.1777067017369263  0.0900087364121384  0.2798935659268088
  0.1754331780020901  0.0889004773130972  0.6131606319732184
  0.1613996735768578  0.0824420668136979  0.1951054112367471
  0.1633237274746617  0.0832013770438049  0.5288485382331796
  0.1761927460577948  0.3482558715205691  0.2747075433300990
  0.1725533361864125  0.3411931472530260  0.6102811371841762
  0.1644954903081036  0.3243947964097388  0.1897271279272162
  0.1671581381409973  0.3298045964024065  0.5252107170790947
  0.1759947282764046  0.5898179912712483  0.2691332136646658
  0.1708025569644874  0.5868531067328182  0.6077146207912518
  0.1658362144115212  0.5840026409672127  0.1844772298239439
  0.1693005987774222  0.5857847894540007  0.5225007184970034
  0.1761690309396055  0.8308018626223658  0.2743486093816510
  0.1724290819346826  0.8340181160396551  0.6100907925521867
  0.1645762161744414  0.8430597335444896  0.1893689574413550
  0.1672815991283664  0.8399917802058953  0.5249988258786994
  0.4250466772855701  0.0850073988094822  0.2744437355404842
  0.4242808622497075  0.0881276333280878  0.6091566271708738
  0.4141560825778939  0.0868302231638559  0.1893469273745546
  0.4149495955176923  0.0847067797656669  0.5239937026092051
  0.4252459781718621  0.3427580204924148  0.2746207001527162
  0.4244425703647278  0.3388410156051961  0.6092311076086939
  0.4138894135939754  0.3302691408552301  0.1895105304487474
  0.4147273642318930  0.3328250563010542  0.5240657194249526
  0.4187139311867830  0.5902971266108141  0.2687988349142289
  0.4203930933151029  0.5870612131146682  0.6076335486601143
  0.4219323339767437  0.5835713704072573  0.1841961387990640
  0.4204769747575338  0.5855276222672007  0.5224138597242285
  0.4184083059760618  0.8314495387390247  0.2685369334632823
  0.4202671736580032  0.8359807970953823  0.6075711797718962
  0.4222273884197376  0.8411275727140864  0.1839840109080310
  0.4206442022077914  0.8375553857136447  0.5223410271808420
  0.6645454149885467  0.0847282126472018  0.2742340263522260
  0.6683163566199745  0.0880915228782968  0.6089885308140227
  0.6764500297145729  0.0870665251679341  0.1891337671753714
  0.6735160926236966  0.0847880938407808  0.5238203610000035
  0.6705331453641494  0.3367284859172832  0.2749323495065299
  0.6705510548656509  0.3366751591986021  0.6080144424998079
  0.6702492148631697  0.3364834948084027  0.1891097380553698
  0.6700501285486050  0.3362364723531699  0.5225437014578982
  0.6649602617391529  0.5829585567611070  0.2742751728966913
  0.6684857957941451  0.5829868678743159  0.6089519934594423
  0.6760441395819848  0.5919956910597538  0.1891537134198510
  0.6732864086628696  0.5912514504508721  0.5237708563412015
  0.6589205593691810  0.8308798828393266  0.2738393959710512
  0.6659256256642836  0.8342342437574856  0.6098243114219043
  0.6827835177404615  0.8429123069196978  0.1888720455430080
  0.6767717260658865  0.8397742519105930  0.5247073387181166
  0.9159580391896291  0.0897970781113452  0.2796308255717556
  0.9173270719441879  0.0888775432102459  0.6129720068478480
  0.9259482462126797  0.0826272005598850  0.1948203001297062
  0.9245447766906698  0.0833367295999213  0.5285656384441585
  0.9215642309418309  0.3422405412875983  0.2746383698126799
  0.9184826161426296  0.3386380373707316  0.6091399357411061
  0.9208931814659818  0.3308723987212952  0.1895039009799224
  0.9224068369545055  0.3331454061625854  0.5239639340293518
  0.9217719493020805  0.5826475898554170  0.2745032974020582
  0.9185422079261509  0.5827597171618325  0.6090295170980764
  0.9207057961407566  0.5923612593172908  0.1893637359156115
  0.9223514160668099  0.5915612504055939  0.5238441582420119
  0.9161296391533215  0.8288099927380081  0.2794569328183570
  0.9173786127836187  0.8309199653186103  0.6128577229502979
  0.9257789783389478  0.8464543352347060  0.1946361590525983
  0.9244340509667289  0.8440527207916523  0.5283923356584096
 
  0.00000000E+00  0.00000000E+00  0.00000000E+00
  0.00000000E+00  0.00000000E+00  0.00000000E+00
  0.00000000E+00  0.00000000E+00  0.00000000E+00
  0.00000000E+00  0.00000000E+00  0.00000000E+00
  0.00000000E+00  0.00000000E+00  0.00000000E+00
  0.00000000E+00  0.00000000E+00  0.00000000E+00
  0.00000000E+00  0.00000000E+00  0.00000000E+00
  0.00000000E+00  0.00000000E+00  0.00000000E+00
  0.00000000E+00  0.00000000E+00  0.00000000E+00
  0.00000000E+00  0.00000000E+00  0.00000000E+00
  0.00000000E+00  0.00000000E+00  0.00000000E+00
  0.00000000E+00  0.00000000E+00  0.00000000E+00
  0.00000000E+00  0.00000000E+00  0.00000000E+00
  0.00000000E+00  0.00000000E+00  0.00000000E+00
  0.00000000E+00  0.00000000E+00  0.00000000E+00
  0.00000000E+00  0.00000000E+00  0.00000000E+00
  0.00000000E+00  0.00000000E+00  0.00000000E+00
  0.00000000E+00  0.00000000E+00  0.00000000E+00
  0.00000000E+00  0.00000000E+00  0.00000000E+00
  0.00000000E+00  0.00000000E+00  0.00000000E+00
  0.00000000E+00  0.00000000E+00  0.00000000E+00
  0.00000000E+00  0.00000000E+00  0.00000000E+00
  0.00000000E+00  0.00000000E+00  0.00000000E+00
  0.00000000E+00  0.00000000E+00  0.00000000E+00
  0.00000000E+00  0.00000000E+00  0.00000000E+00
  0.00000000E+00  0.00000000E+00  0.00000000E+00
  0.00000000E+00  0.00000000E+00  0.00000000E+00
  0.00000000E+00  0.00000000E+00  0.00000000E+00
  0.00000000E+00  0.00000000E+00  0.00000000E+00
  0.00000000E+00  0.00000000E+00  0.00000000E+00
  0.00000000E+00  0.00000000E+00  0.00000000E+00
  0.00000000E+00  0.00000000E+00  0.00000000E+00
  0.00000000E+00  0.00000000E+00  0.00000000E+00
  0.00000000E+00  0.00000000E+00  0.00000000E+00
  0.00000000E+00  0.00000000E+00  0.00000000E+00
  0.00000000E+00  0.00000000E+00  0.00000000E+00
  0.00000000E+00  0.00000000E+00  0.00000000E+00
  0.00000000E+00  0.00000000E+00  0.00000000E+00
  0.00000000E+00  0.00000000E+00  0.00000000E+00
  0.00000000E+00  0.00000000E+00  0.00000000E+00
  0.00000000E+00  0.00000000E+00  0.00000000E+00
  0.00000000E+00  0.00000000E+00  0.00000000E+00
  0.00000000E+00  0.00000000E+00  0.00000000E+00
  0.00000000E+00  0.00000000E+00  0.00000000E+00
  0.00000000E+00  0.00000000E+00  0.00000000E+00
  0.00000000E+00  0.00000000E+00  0.00000000E+00
  0.00000000E+00  0.00000000E+00  0.00000000E+00
  0.00000000E+00  0.00000000E+00  0.00000000E+00
  0.00000000E+00  0.00000000E+00  0.00000000E+00
  0.00000000E+00  0.00000000E+00  0.00000000E+00
  0.00000000E+00  0.00000000E+00  0.00000000E+00
  0.00000000E+00  0.00000000E+00  0.00000000E+00
  0.00000000E+00  0.00000000E+00  0.00000000E+00
  0.00000000E+00  0.00000000E+00  0.00000000E+00
  0.00000000E+00  0.00000000E+00  0.00000000E+00
  0.00000000E+00  0.00000000E+00  0.00000000E+00
  0.00000000E+00  0.00000000E+00  0.00000000E+00
  0.00000000E+00  0.00000000E+00  0.00000000E+00
  0.00000000E+00  0.00000000E+00  0.00000000E+00
  0.00000000E+00  0.00000000E+00  0.00000000E+00
  0.00000000E+00  0.00000000E+00  0.00000000E+00
  0.00000000E+00  0.00000000E+00  0.00000000E+00
  0.00000000E+00  0.00000000E+00  0.00000000E+00
  0.00000000E+00  0.00000000E+00  0.00000000E+00
  0.00000000E+00  0.00000000E+00  0.00000000E+00
  0.00000000E+00  0.00000000E+00  0.00000000E+00
  0.00000000E+00  0.00000000E+00  0.00000000E+00
  0.00000000E+00  0.00000000E+00  0.00000000E+00
  0.00000000E+00  0.00000000E+00  0.00000000E+00
  0.00000000E+00  0.00000000E+00  0.00000000E+00
  0.00000000E+00  0.00000000E+00  0.00000000E+00
  0.00000000E+00  0.00000000E+00  0.00000000E+00
  0.00000000E+00  0.00000000E+00  0.00000000E+00
  0.00000000E+00  0.00000000E+00  0.00000000E+00
  0.00000000E+00  0.00000000E+00  0.00000000E+00
  0.00000000E+00  0.00000000E+00  0.00000000E+00
  0.00000000E+00  0.00000000E+00  0.00000000E+00
  0.00000000E+00  0.00000000E+00  0.00000000E+00
  0.00000000E+00  0.00000000E+00  0.00000000E+00
  0.00000000E+00  0.00000000E+00  0.00000000E+00
  0.00000000E+00  0.00000000E+00  0.00000000E+00
  0.00000000E+00  0.00000000E+00  0.00000000E+00
  0.00000000E+00  0.00000000E+00  0.00000000E+00
  0.00000000E+00  0.00000000E+00  0.00000000E+00
  0.00000000E+00  0.00000000E+00  0.00000000E+00
  0.00000000E+00  0.00000000E+00  0.00000000E+00
  0.00000000E+00  0.00000000E+00  0.00000000E+00
  0.00000000E+00  0.00000000E+00  0.00000000E+00
  0.00000000E+00  0.00000000E+00  0.00000000E+00
  0.00000000E+00  0.00000000E+00  0.00000000E+00
  0.00000000E+00  0.00000000E+00  0.00000000E+00
  0.00000000E+00  0.00000000E+00  0.00000000E+00
  0.00000000E+00  0.00000000E+00  0.00000000E+00
  0.00000000E+00  0.00000000E+00  0.00000000E+00
  0.00000000E+00  0.00000000E+00  0.00000000E+00
  0.00000000E+00  0.00000000E+00  0.00000000E+00
  0.00000000E+00  0.00000000E+00  0.00000000E+00
  0.00000000E+00  0.00000000E+00  0.00000000E+00
  0.00000000E+00  0.00000000E+00  0.00000000E+00
  0.00000000E+00  0.00000000E+00  0.00000000E+00
  0.00000000E+00  0.00000000E+00  0.00000000E+00
  0.00000000E+00  0.00000000E+00  0.00000000E+00
  0.00000000E+00  0.00000000E+00  0.00000000E+00
  0.00000000E+00  0.00000000E+00  0.00000000E+00
  0.00000000E+00  0.00000000E+00  0.00000000E+00
  0.00000000E+00  0.00000000E+00  0.00000000E+00
  0.00000000E+00  0.00000000E+00  0.00000000E+00
  0.00000000E+00  0.00000000E+00  0.00000000E+00
  0.00000000E+00  0.00000000E+00  0.00000000E+00
  0.00000000E+00  0.00000000E+00  0.00000000E+00
  0.00000000E+00  0.00000000E+00  0.00000000E+00
  0.00000000E+00  0.00000000E+00  0.00000000E+00
  0.00000000E+00  0.00000000E+00  0.00000000E+00
  0.00000000E+00  0.00000000E+00  0.00000000E+00
  0.00000000E+00  0.00000000E+00  0.00000000E+00
  0.00000000E+00  0.00000000E+00  0.00000000E+00
  0.00000000E+00  0.00000000E+00  0.00000000E+00
  0.00000000E+00  0.00000000E+00  0.00000000E+00
  0.00000000E+00  0.00000000E+00  0.00000000E+00
  0.00000000E+00  0.00000000E+00  0.00000000E+00
  0.00000000E+00  0.00000000E+00  0.00000000E+00
  0.00000000E+00  0.00000000E+00  0.00000000E+00
  0.00000000E+00  0.00000000E+00  0.00000000E+00
  0.00000000E+00  0.00000000E+00  0.00000000E+00
  0.00000000E+00  0.00000000E+00  0.00000000E+00
  0.00000000E+00  0.00000000E+00  0.00000000E+00
  0.00000000E+00  0.00000000E+00  0.00000000E+00
  0.00000000E+00  0.00000000E+00  0.00000000E+00
  0.00000000E+00  0.00000000E+00  0.00000000E+00
  0.00000000E+00  0.00000000E+00  0.00000000E+00
  0.00000000E+00  0.00000000E+00  0.00000000E+00
  0.00000000E+00  0.00000000E+00  0.00000000E+00
  0.00000000E+00  0.00000000E+00  0.00000000E+00
  0.00000000E+00  0.00000000E+00  0.00000000E+00
  0.00000000E+00  0.00000000E+00  0.00000000E+00
  0.00000000E+00  0.00000000E+00  0.00000000E+00
  0.00000000E+00  0.00000000E+00  0.00000000E+00
  0.00000000E+00  0.00000000E+00  0.00000000E+00
  0.00000000E+00  0.00000000E+00  0.00000000E+00
  0.00000000E+00  0.00000000E+00  0.00000000E+00
  0.00000000E+00  0.00000000E+00  0.00000000E+00
  0.00000000E+00  0.00000000E+00  0.00000000E+00
  0.00000000E+00  0.00000000E+00  0.00000000E+00
  0.00000000E+00  0.00000000E+00  0.00000000E+00
  0.00000000E+00  0.00000000E+00  0.00000000E+00
  0.00000000E+00  0.00000000E+00  0.00000000E+00
  0.00000000E+00  0.00000000E+00  0.00000000E+00
  0.00000000E+00  0.00000000E+00  0.00000000E+00
  0.00000000E+00  0.00000000E+00  0.00000000E+00
  0.00000000E+00  0.00000000E+00  0.00000000E+00
